20
{"graph_id":"3a7393b8435a7bb926626ebd3ee69adf8d73355921a6690225af25bffa2334f2","source_frame_index":20400,"representative_min_atom_index":886718,"coordinate_units":"angstrom","pbc_unwrapped":true}
H   306.36317730  50.04450679  8.72895420
H   307.51149654  51.18216872  8.05208310
H   313.61289024  52.39729285  9.89887044
H   308.09390545  48.55398834  9.39747021
C   311.74063683  52.29024291  8.51673260
C   310.61303616  50.57946444  9.29909274
C   308.32879543  49.69809949  8.99572521
H   311.61711216  51.95312500  7.48803541
H   313.83001804  52.32659578  8.12643692
N   307.22212791  50.60416460  8.89417008
H   309.70523357  52.58676410  9.36803669
C   313.22722435  52.59824395  8.83849189
H   309.02440548  49.55463409  11.88726574
H   313.15872669  53.67490053  8.64459649
C   310.60373783  52.03409791  9.10275504
H   310.59737206  50.14215708  12.02044487
C   309.56211090  50.29636025  11.52496934
H   309.21726227  51.24743581  11.61827669
H   311.12654209  49.89480674  8.66557583
C   309.46664810  50.12981296  9.99872163
