14
{"graph_id":"4635b4746d3eb4fc87f5d4eb1533c904c4ed14b478aa6e9353885d5574812970","source_frame_index":20400,"representative_min_atom_index":3382278,"coordinate_units":"angstrom","pbc_unwrapped":true}
H   463.29684258  517.78774261  352.29606628
C   461.25922203  520.71461678  351.11446381
C   461.92126274  520.71819305  352.48138905
H   463.17806244  518.29252243  349.62413311
C   461.85507774  519.79336739  350.15602112
C   462.69469261  518.38746071  351.79672241
C   462.10384369  519.41528320  352.89542675
C   462.63918877  518.86200905  350.60861111
H   460.20340919  520.74494362  351.02710724
H   461.52119637  519.79641914  349.11007881
C   462.23773956  519.29411888  354.54013348
H   461.49063110  519.70591545  355.44025898
H   462.97087669  520.13764381  354.40177917
H   462.74213791  518.15824509  354.79018688
