20
{"graph_id":"59a48d6470cfc0b5191fb34a0b797594176b78d3aa70a8bec49e3f0cc1ae2b1a","source_frame_index":20400,"representative_min_atom_index":941949,"coordinate_units":"angstrom","pbc_unwrapped":true}
H   394.68429089  481.83512688  158.12914371
H   398.16334248  483.39915276  160.34835577
H   396.57680988  479.98242378  156.26113415
C   398.19157124  484.08522606  159.47470665
C   396.00627422  482.32307434  159.37398672
C   397.88920879  483.47930908  158.45416784
C   397.07748890  482.29451180  158.33241940
H   398.07243347  485.10794640  159.60115194
C   393.35370064  482.28106499  159.95010138
H   393.49734783  482.22537041  161.16094589
H   393.03753376  483.25843811  159.48053598
H   392.52469540  481.56995773  159.50030088
H   396.44458294  482.24434853  160.36719084
C   394.67008114  481.80742264  159.41492319
C   396.32003307  481.09955788  156.35297298
H   395.71702480  480.84640503  157.31151104
C   397.05502987  482.10854530  156.95343018
H   397.45557308  482.82527924  156.23306036
H   398.39985371  483.78825188  157.54854679
H   395.60439587  481.49895668  155.80052137
