15
{"graph_id":"94c41e236985d61220e9ae867a58734d8fd464f5ebabb02d542e64a6d8e7cdd4","source_frame_index":20400,"representative_min_atom_index":994019,"coordinate_units":"angstrom","pbc_unwrapped":true}
H   372.57688046  537.51363754  555.01585007
C   374.08466339  539.45894241  552.65440941
C   372.38423824  537.22677231  552.78353691
O   371.45900726  536.25850677  552.85501480
C   373.64451885  539.68939781  550.14662743
C   373.65825176  538.91558647  551.41725540
H   372.53429890  539.70732689  550.08463860
H   373.56126308  539.31670189  549.14937019
C   374.23694134  538.76504898  553.77950668
H   374.75070953  539.36433792  554.40406799
H   372.42488861  537.01252937  550.80380440
H   373.94549847  540.64960480  550.34651756
H   374.47907925  540.45672417  552.83198357
C   372.98381329  537.66317368  551.58376694
C   373.01223278  537.78543472  553.88112068
