22
{"graph_id":"af515ef23b2235e5d34740792702a95d17ba7bb3a77e83b8075564f1e0d639e5","source_frame_index":20400,"representative_min_atom_index":460599,"coordinate_units":"angstrom","pbc_unwrapped":true}
H   305.65650463  24.03098196  462.23158836
H   306.00187778  21.28356546  463.20033073
H   303.53007317  20.56320012  457.00201988
H   303.15358639  20.22659630  458.46629143
H   304.04233932  20.30649036  460.52961349
H   307.53660202  24.08239841  463.77329826
H   307.79175758  22.04235047  460.51597595
C   304.74982262  21.02170289  458.61792564
C   307.14375973  23.06375802  463.59305382
C   305.73093891  23.05832654  462.97664642
C   305.54535389  21.80298418  462.36681938
H   304.86185551  23.39877933  463.55171204
H   307.73019791  22.73555249  462.72592545
H   306.90977573  23.53966534  460.70551872
H   305.68268299  21.21454030  458.19792747
H   307.45036602  22.44985104  464.48054314
H   306.63321018  22.46880829  459.22889709
C   306.71176910  22.55358547  460.32791138
C   305.55133820  21.82391882  460.93258858
H   304.45692539  19.47249025  456.93249702
C   304.77814674  21.02640867  460.00247002
C   304.03273106  20.08522749  457.82117844
