14
{"graph_id":"11db5db4ef42a3b07683453e63ea31f0835d0b2ce797f7f07a05d032463ee85b","source_frame_index":16200,"representative_min_atom_index":1322191,"coordinate_units":"angstrom","pbc_unwrapped":true}
H   496.43893242  485.26959419  170.60995102
H   495.17135620  488.29669952  170.61156034
C   494.70610619  486.32731438  170.65047026
O   494.26584244  487.77480125  170.77131271
C   496.55880928  486.59019470  168.87016296
C   495.88418007  485.90731621  169.98533010
O   493.89848709  485.55245399  171.09968662
H   495.79491615  488.55872154  168.38026047
N   496.17266655  487.65363693  168.15153360
H   495.85680962  487.43252754  167.17642546
H   498.49638939  486.19551659  169.47443485
C   497.83453941  485.91594696  168.67544651
H   498.30098152  486.08365059  167.78007746
H   497.79000282  484.83881950  168.79904270
