9
{"graph_id":"44f84ff282339468d9535315bcd589fa840f06fa96650bbd9bfe5bf615ed1035","source_frame_index":16200,"representative_min_atom_index":2544890,"coordinate_units":"angstrom","pbc_unwrapped":true}
H   404.97035980  292.89560318  293.27108860
H   404.18391228  294.38521862  291.71271324
C   405.38997650  292.77513027  292.27375984
C   404.54344749  293.27399731  291.24979973
H   406.41131401  292.88852215  292.27769375
H   403.60698700  291.39225483  291.83452129
H   404.73384857  293.79260540  290.41047096
C   404.39772606  291.89584255  291.50426388
H   404.78434563  291.05956554  290.83693027
