12
{"graph_id":"709798b807c7e9da7193fad4e3daa173880d1e7eb214d574fd18ef144b91d9bd","source_frame_index":16200,"representative_min_atom_index":1439320,"coordinate_units":"angstrom","pbc_unwrapped":true}
H   274.88327026  276.29516125  312.55698204
H   275.66442490  278.58541012  313.37180138
C   277.15270519  278.78005505  311.83073521
C   276.20208263  276.40995979  310.76636314
O   275.54631233  275.76510906  309.88500118
C   275.97188950  278.18095684  312.48707771
C   275.79233646  276.81939602  312.22169399
C   278.02033424  277.95701027  311.19439602
C   277.40354538  276.99813843  310.28318405
H   277.21934319  279.88188267  312.04183102
H   277.69052982  276.50125027  309.40876007
H   279.22241688  277.82294750  311.43350601
