11
{"graph_id":"dce0ab592845cdb5dc459fc419258121719b50587da8c981aadab8f402b217cd","source_frame_index":16200,"representative_min_atom_index":1593743,"coordinate_units":"angstrom","pbc_unwrapped":true}
H   143.10508966  450.41675568  19.55662221
H   142.02227592  452.14295387  21.66524976
H   144.87742186  454.21385765  19.73705292
C   144.29236650  453.25484276  19.96437907
C   142.92095900  451.57957077  19.72359717
C   143.35677624  452.71210670  19.06703562
C   143.00171137  451.82189941  21.17752582
H   143.43843460  452.98833847  18.10242385
H   143.51061583  450.82159042  21.36268914
H   143.93404722  453.18708420  22.34700918
C   143.93501282  453.00121307  21.26429081
