10
{"graph_id":"848c32a663216418510275428dcaf56118cea5673a32fcc2a562c2485734e4f1","source_frame_index":13200,"representative_min_atom_index":349169,"coordinate_units":"angstrom","pbc_unwrapped":true}
H   508.19225311  263.75920773  536.21397018
H   509.50865746  263.28229904  533.78720284
H   508.08787346  264.28582668  534.06901360
O   507.46793747  265.14074802  534.49778557
C   508.53667259  265.54610729  535.27770042
O   509.04898643  266.63508415  535.24637222
C   509.07225609  264.29107189  535.79945564
N   509.82685089  263.57996464  534.68036652
H   510.50019264  264.35205936  534.30571556
H   509.87577438  264.75794315  536.56849861
