7
{"graph_id":"7f48f3d6eda05e8de79acc4c70c384831d9a3c8d171632c2d5a654176b7f40fc","source_frame_index":3000,"representative_min_atom_index":3641885,"coordinate_units":"angstrom","pbc_unwrapped":true}
O   392.19810963  457.03310966  45.61809003
C   390.99972248  456.58049583  45.53441703
O   389.92073536  457.27329254  45.50203383
C   390.75753689  455.08298874  45.36903799
O   391.70997143  454.31866646  45.68574131
N   389.57085609  454.65536118  44.90643442
H   388.87603283  455.42569160  44.75800991
