7
{"graph_id":"5c5c5e0799938e30c1bc55d8a07f5fe3b97b0798d9c15a867469b136c970cf5b","source_frame_index":10800,"representative_min_atom_index":6110285,"coordinate_units":"angstrom","pbc_unwrapped":true}
O   551.41286850  240.54291248  45.73915005
C   551.72171593  239.87317085  46.79031074
O   551.32913589  240.13981819  47.91222215
C   553.96270752  239.26281929  46.15747631
O   554.62460518  240.38159847  46.35677040
N   552.74362564  238.91105652  46.62115574
H   554.52570915  238.29848766  45.92712522
