10
{"graph_id":"d53f390b893b187c024b8dece4bf461aea75200b930c546979dabd72a038939e","source_frame_index":10800,"representative_min_atom_index":8486006,"coordinate_units":"angstrom","pbc_unwrapped":true}
C   492.32587814  117.25791693  548.95639420
O   491.58811569  118.02817583  549.47767258
C   493.03097725  115.99081755  549.47719574
O   494.33636665  115.80696106  549.09329414
H   492.13104248  117.83812046  546.87304497
N   492.84191132  117.29797125  547.55740166
C   492.45967865  115.31662941  550.57654381
H   492.11287498  115.85175991  551.46412849
H   493.31545830  114.51361179  550.93708038
H   491.49894714  114.59783316  550.38471222
