14
{"graph_id":"135f1a08153330beaa2ded5d968476533bd79ebde91ff0eefcab2e2c7eb5a5e1","source_frame_index":17200,"representative_min_atom_index":252895,"coordinate_units":"angstrom","pbc_unwrapped":true}
H   437.61425018  288.93270493  374.56600666
H   437.76774406  293.06583405  374.35543537
H   437.83507347  293.00491810  371.32413387
C   438.38090897  292.13495255  374.69601631
C   438.07291985  290.58852196  373.12901020
C   438.51299286  291.83337688  373.25847149
C   437.47425079  289.95289803  374.32601452
H   439.38345909  293.61352921  372.34821320
H   437.83802986  289.91317749  372.25520611
C   437.56084442  290.83840847  375.37496090
H   437.29243279  290.76521397  376.40202045
H   439.46247101  292.28835106  375.05803108
H   438.88435364  291.99883938  371.28276825
C   438.67244720  292.84276962  372.02286720
