20
{"graph_id":"a9ad313fc0e39ae4b30664a5fb3899087f1423e6b66d78a49a66d76c08077714","source_frame_index":17200,"representative_min_atom_index":770791,"coordinate_units":"angstrom","pbc_unwrapped":true}
H   188.13387156  529.04305458  312.31641769
H   188.05578947  530.37686348  314.73424435
H   185.99891663  529.52923775  311.38472557
H   186.68892384  531.34055138  313.85924816
H   186.07580662  530.03444672  314.11225796
H   187.07236052  532.55686760  309.24322605
H   187.17063665  529.66823578  310.56287289
H   188.48638535  530.95965385  312.51316071
H   185.60659885  531.06818199  309.98916626
C   187.22070456  530.41515350  313.84444237
C   187.87816763  530.20720482  312.56749630
C   186.83582544  530.29389381  311.36906147
C   187.20926046  532.67245293  310.29214859
H   186.54434681  533.36720467  310.62102318
H   185.61004400  532.06992149  311.39466763
H   188.99024725  533.61830711  311.22665405
C   188.70226145  532.69381523  310.79533100
H   189.63148594  532.87806511  310.19139290
H   188.69619370  531.80994987  311.17696762
C   186.36127710  531.44354820  310.69114208
