10
{"graph_id":"4b22ca388adc051b19e4f905496beb90785ffce4d26b1e5ec77a017690c6225f","source_frame_index":6800,"representative_min_atom_index":3306016,"coordinate_units":"angstrom","pbc_unwrapped":true}
H   477.25214958  356.20515347  358.74309540
O   474.60522652  356.86955452  355.54351807
H   474.53837395  357.17923641  354.62124348
C   475.69799423  357.65590668  356.15627766
O   476.28645897  358.46905708  355.43782711
C   475.97360611  357.03415871  357.49630928
O   477.20561028  356.85937405  357.87105560
N   475.04611015  357.24256039  358.45234394
H   475.21142960  356.79867268  359.36532021
H   474.01723862  357.09781647  358.22994709
