8
{"graph_id":"5f693fa87455a1f90cf4b09356bc856ab90dd74cf756ce754006248c4214c14e","source_frame_index":6800,"representative_min_atom_index":2301460,"coordinate_units":"angstrom","pbc_unwrapped":true}
H   299.32887554  432.10320473  142.92304516
H   299.42493439  432.38797188  144.61301565
C   299.68068600  431.62074089  143.86289120
O   300.95689297  431.26339912  143.83554459
H   300.90861320  430.34324646  143.21235418
N   298.73840809  430.50670624  144.16567087
H   298.97954464  430.05013466  145.00322342
H   297.76706696  430.78169823  144.21123266
