15
{"graph_id":"2226fca903b7b2892e2bb6832edeec33c44f8fc2e43bff416a1508952d72bffd","source_frame_index":19600,"representative_min_atom_index":5918314,"coordinate_units":"angstrom","pbc_unwrapped":true}
H   163.65362406  521.26250267  534.32068825
C   163.04143667  520.06344795  537.22028732
C   161.47232056  520.47686577  539.13350105
C   161.74911261  522.13530540  537.15267181
O   161.32214069  523.10538292  537.71533966
C   162.18636036  520.90911865  537.85166740
C   162.11661100  522.08342552  535.77189445
C   163.90861273  520.53332329  536.24024391
C   163.24911118  521.37179375  535.46290398
H   165.12670517  520.81451416  536.02313995
H   162.09287643  520.80383301  540.00658989
H   160.37027836  520.69654465  539.35580254
H   161.64674759  519.23961639  539.33033943
H   163.13352585  518.97854805  537.41102219
H   161.61087751  522.62511253  534.85808372
