20
{"graph_id":"ac26306ad1c8822298b63e3cf23d234495a1a665970baeb9fbd63610592500ca","source_frame_index":19600,"representative_min_atom_index":960047,"coordinate_units":"angstrom","pbc_unwrapped":true}
H   409.41414833  422.29814529  1.12138810
H   413.67321014  425.90117455  4.38647047
H   413.78536224  424.44148064  4.92933951
H   411.47098541  420.76735497  3.29775475
C   411.68532372  421.62227631  3.99858914
C   411.31739616  424.62587357  2.81040054
H   411.74006462  421.45333290  4.98643331
H   410.74004173  422.25337029  4.21251990
C   409.10830498  421.15626335  2.47625280
H   411.40666008  425.60935020  2.13643666
C   412.60671616  422.66306877  3.76833752
C   412.24818230  424.00321960  3.61451358
H   409.15970802  420.50623894  3.40364203
C   410.46347618  423.50735664  2.20337827
H   413.55376244  422.61395454  4.24528085
H   411.29393578  422.91698456  1.58277843
C   413.00396919  425.10070801  4.54890952
H   412.42456436  425.40874481  5.42331412
C   409.70931053  422.31669426  2.09757220
H   408.56504440  420.59969902  1.79957263
