14
{"graph_id":"e5e34f53c01f61b8fcc60d3af933a15ab6fc195662cc8095d396f1c192b6518a","source_frame_index":19600,"representative_min_atom_index":406733,"coordinate_units":"angstrom","pbc_unwrapped":true}
H   361.90013885  514.41535950  73.02035689
H   362.90531158  512.69588470  73.56876731
H   359.64531898  512.78595924  69.38162446
H   363.69056702  512.63470650  72.33013511
C   362.09931374  511.55891418  71.47361636
C   362.58571148  512.54076958  72.45520353
C   361.69259548  513.69490623  72.07934260
H   362.33413219  513.99302483  71.12134099
H   360.88197231  510.72525978  69.64871883
H   359.81767178  513.89150620  72.31013179
H   362.54665852  510.65149307  71.43417001
C   360.96534729  511.33599281  70.64656615
C   360.43758392  513.44585419  71.62274718
C   360.46741009  512.69998550  70.23961544
