20
{"graph_id":"ee31596043036c5516a744f6ea93adc04caccdc9c40a6618939c6386206e4849","source_frame_index":19600,"representative_min_atom_index":369577,"coordinate_units":"angstrom","pbc_unwrapped":true}
H   463.98344040  418.84860992  458.89496803
H   462.55903244  421.28658295  455.20505905
H   459.71798897  421.86751366  457.50222206
H   460.19954681  421.32525444  460.24451256
H   462.73236275  417.86756516  458.14223289
H   463.95931244  418.98016930  457.09257126
H   460.82959175  422.36475945  459.14163589
H   459.78932381  420.38493156  456.49166107
C   460.27569771  421.26646042  456.93593025
C   462.24312782  420.05643845  457.98945427
C   463.33909035  418.75534058  458.08882713
C   461.20486259  421.67158127  459.79356766
H   463.12270164  420.41239738  459.98930931
H   461.84973717  419.31300163  459.75646973
C   461.59834862  420.43237686  456.81357384
C   462.08682060  420.42117119  459.56830978
H   462.68882751  419.39749718  455.16614914
H   461.30213737  420.86253166  454.79097366
H   461.49916649  422.44505882  460.44721603
C   461.99684143  420.29905319  455.37919998
