20
{"graph_id":"faeeca41421b347165cf44abf99f1a64c97c2e7b39f279fa30a83f711cff6d09","source_frame_index":19600,"representative_min_atom_index":1635323,"coordinate_units":"angstrom","pbc_unwrapped":true}
H   75.76968074  301.11775398  148.57366085
H   74.26118255  305.48186302  152.31621265
C   75.56981444  304.38141823  148.54108095
C   75.79249740  303.23271751  149.31281805
C   76.35632753  302.01125145  148.62302542
C   74.83010888  304.89232540  151.54899359
C   75.13610721  305.90240955  150.43708086
H   76.20975375  307.08761215  149.40861464
H   75.66571236  304.38394547  152.30407715
H   76.41934752  301.91709995  147.53794670
H   76.88340545  307.27601051  151.03167295
H   74.31343198  304.08751965  151.11130476
H   75.55218935  307.75806904  151.21383667
C   76.05726719  306.88474178  150.46180487
H   73.48463535  304.71913815  149.13783073
H   75.28893352  303.10599804  150.22807121
H   77.44547725  302.44028568  148.48994017
H   76.48751736  304.95996475  148.11367989
H   74.53827858  305.95874786  147.99937010
C   74.55422878  305.24907112  149.05402660
