7
{"graph_id":"2d93c517359e41b26d17f30556c4fa4f625e5bfb58c5418d1afe8d0fbb351051","source_frame_index":10600,"representative_min_atom_index":2721036,"coordinate_units":"angstrom","pbc_unwrapped":true}
H   501.07665062  215.17150402  58.16971660
C   501.92337036  215.07000923  58.83298516
O   502.39906311  216.11251831  59.39035416
C   501.51228905  212.87434101  58.91293287
O   501.69157982  211.75091267  59.36587453
N   502.31151581  213.87197971  58.98520350
H   500.75206757  213.09669018  58.14334750
