7
{"graph_id":"372532bb5a42636ce74e832973b9a9dddabf99290e458feeb11e12a42b482686","source_frame_index":10600,"representative_min_atom_index":1644599,"coordinate_units":"angstrom","pbc_unwrapped":true}
H   507.54046440  202.96652317  39.13435042
C   507.74812698  203.73647213  39.82660472
O   507.76939392  203.47046852  41.02254808
C   508.06412697  205.15060425  39.43557143
H   507.11016655  205.94894886  39.56140578
H   508.67877007  205.62334061  40.27403891
H   508.50186348  205.25267124  38.33084106
