10
{"graph_id":"835d8c35c0974a9f33eadfad80656334274ef78b7e826fda32c3cf8783c9387f","source_frame_index":10600,"representative_min_atom_index":164374,"coordinate_units":"angstrom","pbc_unwrapped":true}
H   258.14685822  245.51389217  498.24900627
H   259.18664932  244.30167675  498.43382835
H   258.10322762  243.67842674  500.70962906
C   257.08155632  243.56973171  498.27928543
O   257.01854229  242.88110733  497.10941315
C   258.25841427  244.56679821  498.68898392
O   258.19783211  244.65506077  500.10204315
N   255.84130287  243.56498718  499.09152985
H   255.66079617  242.61696339  499.51815605
H   256.02471828  244.01996136  499.97496605
