9
{"graph_id":"ffa8f75e6cf6a223f129b64d95b224670102e0bffaee1cbb9ba2cc4335bbde9b","source_frame_index":10600,"representative_min_atom_index":3045380,"coordinate_units":"angstrom","pbc_unwrapped":true}
H   497.18914032  385.21060944  499.67889786
C   497.49140739  386.23664379  499.14798737
O   497.73192406  387.24420071  499.78423119
C   497.72872925  386.51771545  497.62568474
O   497.35150337  385.67008972  496.76909447
C   498.09737206  387.88857460  497.39565849
H   499.16863441  388.09287548  497.76325226
H   497.31740952  388.55938911  497.72915840
H   498.03385735  387.91973591  496.27599716
