7
{"graph_id":"f2363e20c4302b8c0b9a2b3b81503d52acadebef05a5ad65504000621b65cbfa","source_frame_index":6600,"representative_min_atom_index":2301460,"coordinate_units":"angstrom","pbc_unwrapped":true}
H   299.27458763  432.02834129  143.12300682
H   299.28801060  432.23643303  144.86833811
C   299.64272976  431.56790733  144.06355619
O   300.93305111  431.29758835  143.99602413
N   298.75295162  430.29627800  144.08196211
H   298.82581234  429.70976830  144.91304159
H   297.82176018  430.62930107  144.08439398
