8
{"graph_id":"71e9788601335c3207eabf945b1bc5787e6299b7eafaa9801c6742efde04e3ba","source_frame_index":2200,"representative_min_atom_index":3609862,"coordinate_units":"angstrom","pbc_unwrapped":true}
H   120.32197714  146.73471451  49.00556207
C   121.73211575  148.78863096  50.80718398
O   121.90272808  149.95071888  50.91571212
C   121.46047354  147.50622511  50.49764514
O   120.27142048  147.24811316  49.97203052
N   122.36250639  146.54724598  50.82363486
H   123.23863506  146.77482843  51.27483010
H   122.22152948  145.56268454  50.49619079
