9
{"graph_id":"9f6873b9b3daad4b909249adcde0ed281a79a8ff5297da457d086c3f72eddaca","source_frame_index":4000,"representative_min_atom_index":8247042,"coordinate_units":"angstrom","pbc_unwrapped":true}
C   263.78240585  107.12630749  20.45433521
O   263.77472878  106.12887144  21.24700844
C   263.84246349  108.54601860  21.04155272
O   264.40362930  109.42903757  20.36786526
N   263.32738400  108.79492760  22.28724211
H   263.19568157  108.11007023  23.06632549
H   262.82877922  109.70896482  22.39394933
N   263.53709698  107.08376169  19.13353652
H   263.17265034  107.95390606  18.70768517
