23
{"graph_id":"6a286b8a05519ff52877bed69348e233f10da0d88d5c2542671b2e55837c69fd","source_frame_index":20600,"representative_min_atom_index":687114,"coordinate_units":"angstrom","pbc_unwrapped":true}
H   441.61887169  182.15067387  492.27962494
H   440.79051018  186.97162867  496.57878876
H   442.34786034  186.34611368  497.30601311
H   444.46864128  186.08335257  490.87424278
H   440.58375359  183.17502737  493.05953979
H   441.17779732  185.54826975  497.89948463
C   444.16999817  183.39051008  492.82574654
C   441.30473137  183.87234211  495.20292282
C   443.09229851  184.04916525  493.40319633
H   440.83914757  183.14809799  495.83215714
H   442.68031120  185.19417048  493.32704544
H   445.68119049  184.92883444  490.03753662
H   444.67315674  182.57353306  493.50023270
C   442.13895798  183.37097168  494.08617020
H   440.61503410  182.13647604  494.14100647
H   443.72324944  184.79340076  490.36183357
C   445.11938095  184.21334028  492.02561378
H   446.10991478  184.17590857  492.46954918
H   441.70255661  185.55067778  494.64635849
C   441.47257805  186.10814810  496.78401947
C   441.37101173  182.48271942  493.30263138
C   444.84977722  185.02771854  490.76814651
C   441.65201187  185.11905670  495.70646286
