22
{"graph_id":"ec2503bc0c74fd5820d2a6078e9b752f43e781486dca87fbe706099f640ccb73","source_frame_index":20600,"representative_min_atom_index":852842,"coordinate_units":"angstrom","pbc_unwrapped":true}
H   395.35157681  33.29229057  386.11295223
H   389.52159882  30.15625775  383.64250660
H   390.40901661  32.21066892  385.26139259
H   396.64895535  30.14799356  387.40158081
H   395.92919350  28.62009108  386.69857979
H   394.74034309  32.77166784  384.36443806
C   389.75486755  31.14174604  383.69183540
C   394.92707253  30.65840900  387.29436398
C   394.26236153  31.46825135  386.22860909
H   392.42413044  32.35480189  386.50157452
H   388.93826008  31.67392313  384.28127766
H   389.60292339  30.86258471  385.74051857
H   396.02410793  32.23240376  385.06648540
H   395.89023590  30.02267778  385.58113575
C   390.50285816  31.11144900  385.18414497
C   395.02048492  32.42496550  385.44490337
C   395.91534138  29.75371778  386.74256802
H   392.40155220  31.20833337  384.25624371
C   392.83115864  31.60785139  386.11781597
H   394.88284588  31.28285110  388.12370300
C   392.00973511  31.06888533  385.15470028
H   390.43610096  31.39367998  382.93278217
