22
{"graph_id":"feb343677ef19f1fa75ccf5e76a99af7e00f94897924388cbfc96f26d1244e5d","source_frame_index":20600,"representative_min_atom_index":336630,"coordinate_units":"angstrom","pbc_unwrapped":true}
H   18.66881400  416.30659103  374.26846027
H   21.97859585  415.67292213  374.43108559
H   21.60193175  415.38081169  377.24926472
C   24.14952368  417.37713814  372.82834053
C   21.81259841  415.64831734  375.34713745
C   20.44811994  416.22815132  375.53887367
C   20.19492835  416.47052765  373.19424152
C   21.27501965  417.08855629  372.83611298
H   22.05993682  417.18845367  373.44181538
H   21.67592347  416.96133614  370.56348324
H   23.39847386  415.51089287  376.94683075
H   25.20347536  417.05589294  372.42810726
H   24.34600443  416.81399345  373.69904518
C   23.25810194  417.61851311  371.55346870
H   23.87798876  417.84648895  370.83699703
C   19.72587556  416.69840813  374.57177639
H   20.10251284  415.48008919  376.16145611
H   20.11910528  415.59953690  372.49934673
H   24.50597584  418.13616753  373.27618599
C   21.99543715  417.11697578  371.59080505
H   22.25245237  414.08996582  376.21095181
C   22.31001407  415.20032883  376.57585144
