7
{"graph_id":"0b08b0bd6c24f17600ed3e00e9300eea8974f5638d4eb33a67ac84f03a513764","source_frame_index":200,"representative_min_atom_index":3263102,"coordinate_units":"angstrom","pbc_unwrapped":true}
O   534.57274437  184.68042612  339.69402313
H   535.03432274  184.76833105  338.82148266
C   533.31313133  184.17797089  339.40427303
O   533.04038048  183.76692533  338.28091621
N   532.47528076  184.18210745  340.46471119
H   531.52904510  183.87266397  340.29662609
H   532.61971474  184.85701084  341.23516083
