7
{"graph_id":"77c720256045849c5007038cae0d04b86abfd45d740c8feb8e8bb7cc28f2d167","source_frame_index":200,"representative_min_atom_index":7415188,"coordinate_units":"angstrom","pbc_unwrapped":true}
C   482.64231682  168.25840473  168.17468405
O   482.82589912  167.47143269  167.14099646
C   482.80372620  167.85427332  169.46462393
O   483.00056458  167.50072241  170.56869268
N   482.24334717  169.55451965  168.00383329
H   481.63523674  169.96742487  168.69801283
H   482.95893669  170.24385929  167.65819788
