8
{"graph_id":"83f13aa0759ec36018fc52dd820e9dad33faf08cdef6b7a67a5eb3b2dcbe5582","source_frame_index":200,"representative_min_atom_index":7461582,"coordinate_units":"angstrom","pbc_unwrapped":true}
C   327.38869190  384.58633423  226.65679455
O   326.40144825  384.34407711  225.88536739
N   327.34038830  384.21885967  227.96387672
H   328.16827297  384.12749767  228.64444256
H   326.43394470  384.27665234  228.43990326
N   328.44345570  385.33616066  226.15134716
H   329.25224304  385.42172909  226.76134109
H   328.71990204  385.10730267  225.19609928
