9
{"graph_id":"a42fef6eee69440fb276083c1d5c0d20cc4bb8590470164dc2d0d6c63316f699","source_frame_index":200,"representative_min_atom_index":3541466,"coordinate_units":"angstrom","pbc_unwrapped":true}
O   433.26234818  360.52949429  274.21996593
H   432.82423019  361.47301197  274.51920509
C   431.51531219  360.51387787  272.53229618
O   430.91926575  361.51180267  272.94819355
C   432.53703117  359.78527069  273.36380482
O   432.74083138  358.58669281  273.21844101
N   431.28118515  359.95233059  271.25163078
H   430.46770096  360.36946774  270.77775002
H   432.10310936  360.04445553  270.64270973
