10
{"graph_id":"c3a063673aea5c1ac26fe01f1e6096fcfce3594e349ddc88eff15825f010aaf0","source_frame_index":200,"representative_min_atom_index":8247042,"coordinate_units":"angstrom","pbc_unwrapped":true}
C   263.57371807  107.69389868  21.18337005
O   263.55531216  106.61824942  21.86302245
C   263.19520473  109.01899338  21.81172222
O   263.85407448  110.02973318  21.52376473
N   262.07859516  108.97725821  22.61288464
H   262.14728355  109.12798643  23.65499586
H   261.38961315  108.25552940  22.40977138
N   263.81933689  107.70119429  19.85334307
H   263.70813847  106.80617094  19.36282367
H   263.90542984  108.57433081  19.34753060
