8
{"graph_id":"c8f091b6084cd1d8120100225261565b5cd36090b15167f0ecf0470a22e8319a","source_frame_index":200,"representative_min_atom_index":5344334,"coordinate_units":"angstrom","pbc_unwrapped":true}
O   99.77592826  450.31561852  213.32814693
C   98.21074605  451.19452477  211.69192791
O   99.05454516  451.85585022  210.99982262
C   98.55758548  450.39849281  212.93084621
O   97.57201076  449.82175827  213.50829601
N   96.86809778  451.24030113  211.35671139
H   96.27866745  450.54426193  211.82837486
H   96.47662044  452.20980644  211.65778637
