8
{"graph_id":"d11e7183143dfd0263f1f4e1f225bbfb95e44d10e0bd3a5317f15add79642c6e","source_frame_index":200,"representative_min_atom_index":1353890,"coordinate_units":"angstrom","pbc_unwrapped":true}
H   518.45965385  376.99337006  392.51534939
C   519.72250938  378.66516113  393.30170155
O   520.18351555  379.79638577  393.04389954
C   518.56412888  378.15423012  392.54128933
O   517.82050133  378.83889675  391.78173542
N   520.34120560  377.84671783  394.21193600
H   521.31056786  377.59697437  393.93219948
H   519.83866692  377.01480389  394.50848103
