7
{"graph_id":"ecc7534a886ee40b948d5cc0602bb4aef934a48d8e7ec29e838c7d030aa0efba","source_frame_index":200,"representative_min_atom_index":7468058,"coordinate_units":"angstrom","pbc_unwrapped":true}
C   431.52537346  391.81816578  315.92590809
O   432.41143227  392.24491119  316.74563885
N   431.32929802  390.52155018  315.69666862
H   430.64112663  390.29633999  314.95378017
N   430.72547913  392.75703430  315.27876854
H   430.68075180  393.68190765  315.71059227
H   429.79712486  392.45307446  314.98048306
