8
{"graph_id":"ae861de7b51f4b1bf59afabe84c59b67950961f328044c72c85c869d119af84e","source_frame_index":10400,"representative_min_atom_index":3999902,"coordinate_units":"angstrom","pbc_unwrapped":true}
O   76.50050521  392.72594452  382.96983242
C   75.29183626  393.23651791  382.53064156
O   75.16264319  394.42501068  382.61470795
C   74.28709865  392.25757122  381.91838264
H   74.34070110  391.88010693  380.81550598
H   77.11593509  392.83854961  382.20531940
H   73.41060638  392.75345802  382.39231110
H   74.63544011  391.21911526  382.37636089
