8
{"graph_id":"f1635b38fb13e246c85d4a71dde5b2c3631aa982f4d66cf46c1bdc3825e777a5","source_frame_index":10400,"representative_min_atom_index":4889442,"coordinate_units":"angstrom","pbc_unwrapped":true}
H   201.42810345  487.30955124  153.59766483
C   199.52182770  487.72382736  153.20636034
O   198.81101847  486.87710762  152.70276070
N   200.79545975  487.78028488  152.83656120
C   199.05703068  488.63949776  154.33006287
H   198.13553095  489.20693398  153.97882462
H   198.73596430  487.96682358  155.14290333
H   199.77620840  489.25108910  154.76956367
