20
{"graph_id":"5164d4801f5ab05096ff5b890f0dc99e8d5ee5b789b5b158ff7fa528d03e9de6","source_frame_index":18000,"representative_min_atom_index":345189,"coordinate_units":"angstrom","pbc_unwrapped":true}
H   22.09874243  219.79696751  367.43602753
H   21.58452570  218.09041500  364.42832947
H   22.41457701  217.66979694  362.79218197
H   23.73253554  216.18621349  363.51344585
H   21.11744732  218.35279465  366.97471142
H   23.03433269  217.07293987  367.62769222
H   23.08369428  219.98343468  364.18545246
C   21.93531096  219.09172535  366.68071747
C   24.60786104  219.19069290  362.90702820
C   22.50122875  217.98529625  363.79799843
C   23.69450331  217.17908382  365.73085785
C   23.19288105  219.23077106  363.33653927
C   23.36977571  216.96615219  364.27915096
H   25.02169311  218.95854473  363.75389099
H   24.38170463  216.42041206  366.00551605
H   21.07827961  219.36514378  365.77222347
H   24.74321127  220.33689022  362.42616177
H   25.00967681  218.40810776  362.30123043
H   22.45703489  219.60771084  362.55719662
C   22.98476994  217.88270473  366.71092510
