20
{"graph_id":"75abbe8ad1c6f63d105a8950b19103ed75a9cda8236b7c5fb10975cfcfbb0664","source_frame_index":18000,"representative_min_atom_index":2159260,"coordinate_units":"angstrom","pbc_unwrapped":true}
H   201.75006390  80.35243154  91.60458446
H   200.26798248  82.57469535  95.15423775
H   198.05043936  81.75494075  90.70517421
C   199.73915815  81.01583719  91.39564633
C   201.00603104  80.93825579  92.12222099
C   197.64022827  82.12081790  92.68459678
C   198.55768681  81.83979392  91.69642329
H   199.14149046  81.75029755  94.06296015
H   197.04707861  84.69256759  92.66406298
H   197.64823914  81.46126866  93.60461235
C   201.34932995  81.37140274  93.43901873
C   196.15637064  83.98718834  92.87026525
H   195.32178640  84.34452415  92.47779846
H   195.83014250  83.81453753  93.86766553
H   195.62816620  82.22694397  92.20468402
C   200.20351410  81.86263442  94.16053891
H   196.81078196  82.87302852  91.07985497
H   202.47151852  81.39056563  93.45088005
C   196.48805857  82.81418085  92.12818146
H   199.97495413  80.32706380  90.61568379
