15
{"graph_id":"79a7d8ac87d72be02a453b9a383471ff10aced1ba643580e199cba53bc466ebf","source_frame_index":18000,"representative_min_atom_index":2171508,"coordinate_units":"angstrom","pbc_unwrapped":true}
H   549.45693016  201.01773739  110.82313061
C   551.47089958  201.72686577  108.31221342
C   550.67586899  201.94656849  109.40161943
C   551.93643570  200.43315887  108.07884932
C   551.25994682  199.35539961  108.87106657
H   553.72977257  200.87156296  108.26410055
H   551.84550285  198.51344824  108.72251987
H   549.30906296  198.70102406  109.14807320
H   553.30567360  201.24862194  106.57047033
H   550.53462982  202.89680958  109.84143019
H   553.54747772  199.47004318  107.10288286
C   553.23772430  200.47438145  107.29527473
H   551.48863792  202.67932415  107.73071051
C   549.87273216  201.02870464  109.83723402
C   550.03652573  199.51200485  109.36877728
