8
{"graph_id":"81afd168e2c0fb5a37e37967fac050fe6f74485d70976c9fc1bdac69fa4e4aa3","source_frame_index":18000,"representative_min_atom_index":6737248,"coordinate_units":"angstrom","pbc_unwrapped":true}
H   546.18396759  346.70331478  357.68411160
C   546.95687294  346.05724812  358.25569630
C   547.87549973  346.58946991  359.04777050
H   545.85294724  345.78263760  361.39187813
H   548.92721176  346.99780941  359.32862759
C   546.65312767  346.35741711  359.79440212
H   544.81329918  347.26204872  360.58642864
C   545.73092461  346.40927315  360.66982746
