14
{"graph_id":"a4d5cc72357b89ecc7595062202d32edd3b8e992f5874c4f88a6f3f8fafa1a8a","source_frame_index":18000,"representative_min_atom_index":2742499,"coordinate_units":"angstrom","pbc_unwrapped":true}
H   233.47499371  547.51563072  474.54562187
H   232.43379593  552.12149620  473.12574387
H   232.47411251  550.34933090  470.44963837
C   232.93445110  551.11103058  473.38786125
C   233.36849213  550.20413399  472.34554291
C   233.55226517  548.50211143  474.03969765
N   233.32839012  550.58717728  470.85819244
H   233.65514278  551.39088631  475.40493011
H   235.10527611  548.97150993  473.22306633
C   233.24224949  550.69251060  474.67021942
H   233.94896984  550.05979538  470.23615837
H   233.56745243  548.87280464  476.04165077
C   233.99076462  549.06497002  472.87945747
C   233.42432976  549.39937592  475.09245872
