20
{"graph_id":"f19aea119cada1284915456ed8bfc1fa70af2df69fbc1992d9a005275392fafe","source_frame_index":18000,"representative_min_atom_index":2527345,"coordinate_units":"angstrom","pbc_unwrapped":true}
H   229.41215038  445.54209709  40.56275487
H   229.22368050  449.25532341  43.56556535
H   227.45378017  451.13167763  41.84384942
C   227.65049934  449.95760918  43.65049005
C   228.10125351  447.98526764  42.30809212
H   229.64179516  444.46177483  42.93009937
H   226.05803013  450.34499168  42.61596203
H   231.03914261  445.66998482  43.57388914
N   226.98609829  450.68840981  42.79892147
H   227.18932629  447.80240059  41.59307480
H   227.84140110  451.08065605  45.25317252
C   229.81412411  446.06242180  41.64098203
H   231.38082027  444.84825134  42.18587875
C   228.32763195  448.77939224  43.33646297
H   226.47335529  449.76158142  45.44708729
C   230.48596382  445.13387680  42.73927212
H   229.87387180  447.33471870  43.20682585
C   229.11536694  447.04446793  42.47921407
H   227.92088985  449.27058220  45.88331878
C   227.35927105  449.96442795  45.22691369
