21
{"graph_id":"314cc89d75629a751ef7ebddb44182cb9a19def1dbf986fd80719cc1ac6baea9","source_frame_index":18400,"representative_min_atom_index":1035734,"coordinate_units":"angstrom","pbc_unwrapped":true}
H   197.42348194  75.74595213  95.34336925
H   196.78102732  82.33634233  95.42426467
H   199.52176809  78.03002596  95.22898793
H   198.99284840  82.93177485  97.96110392
H   196.68720961  80.17509580  93.87642145
C   197.95166254  80.50214648  95.75881958
C   197.35090733  81.57791495  96.18324637
C   197.97705412  78.43133807  94.10155416
C   197.31310606  79.73174453  94.69342232
H   198.31060171  82.58045316  99.37219024
H   196.12725973  81.97193146  97.78102040
H   198.06092978  78.66752744  92.99063683
C   197.13510275  81.71851039  97.80540466
C   198.39714766  76.22706294  95.70663571
H   199.16002750  75.63282847  95.24312019
C   198.03644419  82.67424703  98.31945300
H   198.37840796  79.92713451  96.45816684
C   198.63452911  77.54260898  94.96402740
H   197.21958637  83.42062235  98.10383916
H   197.34671116  80.70533872  97.81519771
H   198.59765768  76.69889927  96.75537944
