20
{"graph_id":"3c864ee36749967af9c2692b5726b5cd5c899703c9b6e20f4918428fee552cfb","source_frame_index":18400,"representative_min_atom_index":646399,"coordinate_units":"angstrom","pbc_unwrapped":true}
H   323.67203236  422.07341194  275.87249279
H   320.88150978  420.94163895  271.92580700
H   321.93248272  420.76058388  270.75555325
H   323.35889339  420.52268982  277.93803215
H   327.53620148  421.67458534  277.43170261
C   326.57971382  421.39897346  277.90746689
C   324.09598827  421.45152092  275.12435913
C   322.70455360  420.86257935  273.04022312
C   325.08625984  420.82886696  275.85821152
H   321.88732624  422.35631943  271.69234753
H   322.10323811  420.26953697  273.83441925
H   326.52988434  421.97127342  278.60507965
H   326.68626308  420.52516937  278.50210667
H   325.87337494  420.22047043  275.06616116
H   324.76196289  420.88360786  273.22831154
C   321.91884518  421.35043144  271.73411846
C   325.29201508  421.07157707  277.26731300
C   323.76821041  421.36492729  273.82512093
C   324.19457436  421.27346992  278.09741497
H   324.39496517  422.01147079  278.95624638
