10
{"graph_id":"6a0105b3df2b2ec60f5d1cce5090b5572e52e305ddfae466b033694a30201cdb","source_frame_index":18400,"representative_min_atom_index":4564396,"coordinate_units":"angstrom","pbc_unwrapped":true}
H   385.80517769  237.61050701  307.64138699
O   390.19513130  237.94746399  307.09884167
C   389.07132149  237.93590069  307.63349533
C   386.77189350  237.80753613  307.89093971
C   387.21241951  239.08324242  308.38816166
C   388.66856098  238.98043633  308.31620693
H   386.51859760  239.83805180  307.99086094
C   387.98298836  237.15035915  307.60700703
H   388.01972866  236.14399433  307.33888149
H   389.47429657  239.60409164  308.62498283
