12
{"graph_id":"83a791df6c83fefff0f865bd84f1e5f73e233921fc3899675fb8dd07ddf82047","source_frame_index":18400,"representative_min_atom_index":1634645,"coordinate_units":"angstrom","pbc_unwrapped":true}
H   239.50672150  550.37922859  474.62325096
H   235.78641415  553.74479294  475.02818108
C   238.63670826  551.06630325  474.61791039
C   238.58368397  551.93552971  475.67691803
C   236.50355339  552.85634995  474.88708496
H   237.44821548  550.93140602  472.62091637
H   239.47126865  551.86653137  476.31573677
H   237.23258972  553.28278542  477.04672813
C   237.64598370  551.39465332  473.66108894
H   236.56332493  552.73251534  472.53503799
C   237.40060329  552.63495445  476.02190971
C   236.74483299  552.39887238  473.64821434
