22
{"graph_id":"063b293364108edf2459619c39dfc4fcba5315c76bb8726be5f801b2f69d76de","source_frame_index":19800,"representative_min_atom_index":8267,"coordinate_units":"angstrom","pbc_unwrapped":true}
H   447.96066284  319.06449795  200.40557384
H   447.60279655  322.13730812  199.36558008
H   449.66616631  321.59211636  200.23009777
H   449.04875755  321.41029835  196.76061869
H   444.12755966  318.69733334  203.86629105
C   448.28414917  321.41673565  198.66193533
C   447.83482552  320.08321285  200.47419071
C   449.37357903  321.78890705  197.55598307
C   446.70753479  320.56910992  200.92515945
H   443.90354156  318.52111816  202.24063396
H   444.81077194  317.35861301  203.13284397
H   449.76420403  320.02656460  199.72259998
H   448.96049500  322.78976440  197.56673574
C   444.70963478  318.39506626  203.04419994
C   446.14052773  318.69633198  202.35478878
C   448.93531799  320.67563534  199.84378815
H   447.81169891  320.83992958  197.90098667
H   445.39527893  320.59059143  202.44691372
H   446.09289169  321.41990662  200.41828156
H   450.31313896  321.88966274  197.76928425
C   445.89037895  319.95747089  201.84562206
H   447.10493088  318.38033199  202.75976658
