16
{"graph_id":"35cafaa06ead8cfd0fc08b471fa71e0a857f7ef08f5c2b5d72705f15e1e162e4","source_frame_index":19800,"representative_min_atom_index":2813145,"coordinate_units":"angstrom","pbc_unwrapped":true}
H   163.26668262  521.70023918  540.31934738
H   159.98532772  522.82767296  536.35802269
H   163.55522871  520.65348625  534.59024429
C   164.07369375  521.04678154  537.84880638
C   162.61545420  522.27277756  539.83502388
C   161.73270941  521.88925743  537.09349632
O   160.51397324  522.36142159  537.21632957
C   162.91601658  521.86412811  538.33537102
C   162.09169626  521.43282890  535.79864502
C   164.57127333  520.92623711  536.62800789
C   163.61118555  521.12975121  535.53953171
H   165.41223526  520.65949440  536.16290092
H   163.02732229  523.30775261  540.06104469
H   161.54539585  522.06797600  539.91694450
H   164.29556608  520.47162056  538.65804672
H   161.42362356  521.54645920  535.08434296
