21
{"graph_id":"79eab29dec3daf20a6478929604050a8fc912d26fe83c86d53c147a69590cad6","source_frame_index":19800,"representative_min_atom_index":2480892,"coordinate_units":"angstrom","pbc_unwrapped":true}
H   535.38336754  377.12867260  93.68044734
H   533.48417282  376.51684284  91.76993370
H   535.34297943  376.18744373  92.17453003
H   534.58609581  379.61652279  91.02465510
C   534.50727463  377.28786469  90.43809772
C   534.57021713  379.35543060  93.14376116
C   534.75027084  380.02116680  92.00540781
C   534.48743820  377.75452137  93.05936098
H   534.16595459  377.30832100  93.99253130
H   535.03642082  379.52868938  95.18869519
H   533.40253830  377.35841274  89.92938399
C   534.54432487  376.82454586  92.04043746
H   535.43944359  382.23221302  91.76929593
C   534.23838615  379.56414223  94.64089274
H   536.41772270  380.60882092  92.20313430
H   533.43811035  378.91736031  95.00147700
H   533.89935493  380.49831390  94.72724199
H   535.08620262  381.64806366  93.06807518
C   535.51807404  381.24892712  92.27768183
H   535.01901627  378.22301388  90.18449187
H   535.08582115  376.36208534  90.29681087
