20
{"graph_id":"c2a3eeb2e26bcbb7f9f203826439184fae6fa2649a2a9d95ada63f18455e4456","source_frame_index":19800,"representative_min_atom_index":582290,"coordinate_units":"angstrom","pbc_unwrapped":true}
H   511.58103943  114.87368345  178.62125635
H   512.51525879  116.59096479  176.47895813
H   516.30067825  117.75587797  179.17814255
H   510.92863083  114.64945078  175.23483038
H   510.05911827  114.39002752  176.71018839
H   511.14206314  116.17006063  177.08349228
C   511.06548309  114.39090967  176.28208399
C   515.59338570  118.48759651  178.60811949
C   511.52396202  115.38919210  177.44667530
H   515.09623528  117.94731617  177.20345259
H   514.00275230  115.43068886  176.93217993
H   511.52582169  113.39137554  176.30681992
H   512.81809807  116.81040525  179.82511520
C   514.30068016  118.05882454  177.94083357
H   515.30861855  119.45974827  179.32449579
C   513.05980682  116.05755091  177.16535330
C   513.22040558  117.27387905  177.88656950
C   512.27140427  117.37407446  179.10612822
H   511.84139252  118.41351986  179.27290201
H   511.22283936  116.97753668  179.01486158
