14
{"graph_id":"e407db328b3b6c51f3cfa9f48c3c59492589ab3e799e8d218f7194fdc3a6acdc","source_frame_index":19800,"representative_min_atom_index":1701295,"coordinate_units":"angstrom","pbc_unwrapped":true}
H   444.81430054  83.42236876  185.66049337
H   440.18383026  81.94843531  187.82587051
H   440.31124115  84.75114703  184.99387503
O   444.87037659  82.04677701  187.26425171
H   442.38452911  82.46523738  188.74334097
C   442.96183586  83.35976005  186.56046391
C   444.38929558  82.90998340  186.44602299
C   441.01548195  82.14041591  187.09295988
C   440.77358246  83.73945355  185.18526554
C   440.39201736  82.87307024  186.17509604
C   442.10987091  82.62565732  187.60601282
C   442.19264984  84.14089084  185.64405441
H   439.43190575  82.42762685  185.95981598
H   442.80810356  85.01903415  185.16920805
