10
{"graph_id":"1bc0b60949f984d2596e90c88f3f02af4b1dac67db9d53af34e9e66150259bce","source_frame_index":15600,"representative_min_atom_index":2670992,"coordinate_units":"angstrom","pbc_unwrapped":true}
H   189.17473555  427.29005814  200.06160736
O   192.34031439  426.53894424  199.11466837
H   190.76956511  426.64036751  197.46204615
C   191.50313139  427.44121552  199.57312346
O   191.83079004  428.43227386  200.17170906
N   189.95456696  427.26168633  196.99064493
H   189.88859653  429.30040359  197.73619175
C   189.97309208  427.29506493  199.28083420
C   189.80896473  428.30777168  197.96673059
H   189.85385895  426.21860504  199.24726486
