7
{"graph_id":"9dc45c51f4079b78196dcae88fcf569e10483d5dd6445d9fbf416b4b31866840","source_frame_index":5000,"representative_min_atom_index":1349665,"coordinate_units":"angstrom","pbc_unwrapped":true}
H   450.74229240  89.23358321  305.15272617
H   448.57172966  87.86913753  303.51088047
H   449.49336052  90.45176506  304.64446545
C   449.64199066  89.37770724  304.89337444
O   448.86436462  88.98200989  305.94954491
C   449.31826591  88.68760467  303.55031490
O   449.82585907  89.03121948  302.45437622
