14
{"graph_id":"4151935e0098a701bd84d5a442f7bdb32ae8360caaa0057354f1613e59bcaaa5","source_frame_index":20200,"representative_min_atom_index":434444,"coordinate_units":"angstrom","pbc_unwrapped":true}
H   30.89192808  500.49395561  187.87565231
H   31.21520281  502.62403488  189.11846876
H   31.09192550  504.97884750  187.77309656
C   33.97912383  501.87425613  186.97727919
C   31.91045821  500.98891258  187.70506382
C   32.55614936  503.46789360  187.92241812
H   32.84400702  505.86619377  187.75287867
H   32.46263266  505.22189140  189.13967609
H   34.88428295  501.57384872  186.58865690
C   32.15520680  504.91299629  188.13250065
C   31.96094036  502.27499008  188.45281601
H   34.54680145  503.97782326  187.13539839
C   33.81992280  503.17945480  187.24473715
C   33.13651979  500.78806877  187.17365265
