21
{"graph_id":"533d482fa2324654cf98f30239fae137b9517f73d8a8818a9cd298ff7bca8fba","source_frame_index":20200,"representative_min_atom_index":1894070,"coordinate_units":"angstrom","pbc_unwrapped":true}
H   40.38100839  257.21313953  331.50563240
H   41.75948799  254.72104549  334.73210335
H   42.00102389  254.86409664  331.02052212
H   40.48682749  254.10687923  333.40573311
H   42.59963930  256.48441315  331.77363873
H   41.82546139  258.07971954  335.65609455
C   40.93345106  256.08344078  333.20412636
C   40.51459730  258.72151852  333.56761932
C   40.79413116  256.18498325  331.93519115
C   41.32627547  257.14488029  335.40933132
H   40.69870412  256.98866844  336.24050617
H   40.04164338  255.44619560  331.61830902
H   41.23829007  258.78312588  332.83848763
H   40.32144547  259.37688351  334.42847729
C   40.72714746  257.26232529  334.09073353
H   41.92531109  254.21178341  332.77814388
C   41.96467996  255.97493649  331.11073971
H   41.87210500  256.47227764  329.95877266
H   39.74130452  259.04164314  332.84528255
C   41.42201543  254.70094681  333.70323181
H   42.16921329  256.37898445  335.44583321
