18
{"graph_id":"843474d83ffe91f87585687f26e180a6fdf0dcabe8ad5ae3be37777416741fa5","source_frame_index":20200,"representative_min_atom_index":1560293,"coordinate_units":"angstrom","pbc_unwrapped":true}
H   361.83564663  437.51487732  167.04893112
H   360.62152386  437.59503365  171.39850855
H   362.17117310  439.19796944  166.27658606
H   364.37466145  439.86530304  167.60574579
H   364.15402889  438.76447678  171.90614939
H   361.57059669  437.43453026  172.67221212
H   365.20791054  440.15622139  169.80959177
C   364.24508095  439.68000412  169.99908686
C   361.99402809  438.60645294  169.50343847
C   363.95745277  439.63050842  168.62668991
C   362.69741058  438.78154755  168.40536594
C   361.69564724  437.20598221  171.56714201
C   363.57750893  439.00718689  170.90529203
H   360.93235016  438.25726509  169.05838251
C   362.59975433  438.44137192  167.00146198
H   363.64648342  438.15088272  166.41868353
C   362.38229275  438.35444450  170.74114084
H   362.48149872  436.36479378  171.25482559
