16
{"graph_id":"b54618d186fc008be9c279fea7e58a5b8cd1108911d2913d6fd077c7026f550a","source_frame_index":20200,"representative_min_atom_index":3382278,"coordinate_units":"angstrom","pbc_unwrapped":true}
H   457.54389763  516.76034927  350.39296150
C   459.64026451  514.94483948  353.18729877
C   460.01162529  516.25347137  352.65462399
C   458.47415924  514.53824043  352.76181698
C   458.54830742  516.17412567  350.69167614
H   461.18535995  516.58978462  352.95410156
C   459.53655243  516.78061485  351.42560005
C   458.14166069  515.01870155  351.44805908
H   457.27233887  514.60843086  350.89695454
H   458.78252983  515.79084396  349.73771572
H   460.51173210  514.47854042  353.43716145
H   457.98044205  514.13831711  353.57296467
C   459.86213684  518.10131073  351.03402138
H   458.81166458  518.66526604  351.06060505
H   460.37344933  518.01047325  350.05223751
H   460.20870209  518.99361610  351.31134987
