22
{"graph_id":"f87d53996e8e82391a5edcff6191ea0c7033ed9c872a3bd0afe7babe1eaa76db","source_frame_index":20200,"representative_min_atom_index":452802,"coordinate_units":"angstrom","pbc_unwrapped":true}
H   390.04459381  36.30254567  386.90547943
H   393.19789410  32.64454603  390.18933773
H   388.82851601  35.98732054  388.40527534
H   393.96588802  31.33393526  385.45072079
H   394.25091743  32.58155882  386.37096882
H   393.75107288  34.01799500  388.93775940
C   389.82555866  35.91114879  387.89403439
C   393.20819378  30.97592294  387.42077351
C   392.72174835  32.05054104  388.53116035
H   390.73200226  31.24610782  388.23163509
H   390.44628143  36.52369380  388.61119747
H   394.73767281  32.61929750  389.33467865
H   393.18406582  30.07868528  387.76612282
H   395.02503872  30.79142570  386.85765266
C   390.66312313  34.56806839  388.31601143
C   393.68889332  32.85693824  389.21139240
C   394.43264008  31.45996928  386.42547131
H   389.33601379  32.77398944  388.01953793
C   391.36750698  32.20549822  388.65036964
H   392.05243587  30.96507490  386.94379330
C   390.42079449  33.20995271  388.29147816
H   391.50300026  34.77824628  389.10081387
