13
{"graph_id":"898bd5d917c1023cd069e88550239f26865b529c68eb10232e598227e7fd5ab8","source_frame_index":16000,"representative_min_atom_index":819140,"coordinate_units":"angstrom","pbc_unwrapped":true}
H   279.75180149  277.35428810  312.24067211
H   281.51950836  280.39977551  310.79146862
H   277.74016857  281.87413216  310.11383533
C   278.37729454  281.19857311  310.72347164
C   279.79638577  279.11243439  311.77878380
O   280.50174713  278.01291943  312.18001842
C   279.86667156  281.28366470  310.73889732
C   280.61919212  280.22024632  311.28194332
C   277.58271694  280.19087315  311.36183739
C   278.42719555  279.01697159  311.74170971
H   280.40213585  282.18846321  310.47887802
H   277.86121368  278.57158184  312.49034405
H   276.55625343  280.00533581  311.22081280
