7
{"graph_id":"8f58c84ce7ce3d24903ff5586bbf91c73bcf60c29d8936b8ce68c4b5b8b33efd","source_frame_index":16000,"representative_min_atom_index":1797565,"coordinate_units":"angstrom","pbc_unwrapped":true}
H   439.37602043  318.94967556  361.33313179
H   441.11189842  320.42739391  363.38024139
C   438.93918991  320.15044689  363.45703602
C   440.18011093  319.69623566  363.61324787
C   439.31035995  319.08133030  362.40108013
H   437.89615631  320.23017406  363.29345703
H   439.52021599  317.95547009  362.76912689
