8
{"graph_id":"959e902f1c27fef2f694b381e6d9609b3d6cb23a22a6c26c63c559b0a5305019","source_frame_index":16000,"representative_min_atom_index":4958976,"coordinate_units":"angstrom","pbc_unwrapped":true}
H   481.62517548  364.83261585  163.43727112
O   483.47115517  366.92428589  164.01255131
C   480.52196503  366.47427082  163.48335743
C   482.82709122  366.10457897  164.67908621
O   482.73439407  365.87948799  165.90982676
N   479.52165604  367.08858013  163.61719370
C   481.43095970  365.62385559  164.11541700
H   480.82246780  364.77839947  164.75489140
