11
{"graph_id":"3ed66b94a0f9967c20266b8c975a2baec25c8651d5e8d0506158936d158c4352","source_frame_index":15000,"representative_min_atom_index":3564988,"coordinate_units":"angstrom","pbc_unwrapped":true}
H   439.14833069  544.26646233  385.03799438
H   437.73026466  546.22230530  387.71877289
C   439.33300972  545.14265060  385.79137325
C   439.75234032  544.78774071  387.04667091
O   437.54668236  545.31288147  387.84985542
C   438.82441521  544.75874901  388.38508129
O   439.04476166  544.43721771  389.45004940
H   441.72692299  545.12152672  387.18116283
N   441.12267494  544.53997612  387.66059875
H   441.49236679  543.78733635  387.16492653
H   438.72184753  545.93639374  386.06057167
