12
{"graph_id":"82cc6b99821b7b5147ced9758f283f512de0d39eb9d50ec802d9375d9412d64e","source_frame_index":15000,"representative_min_atom_index":4270758,"coordinate_units":"angstrom","pbc_unwrapped":true}
H   292.85047054  301.26469135  291.67029858
C   293.81911755  298.31264019  290.12694359
O   294.52497959  297.03509808  290.37215710
C   293.36497784  299.14596081  291.42553806
O   293.93351078  298.75018597  288.91556263
H   293.61186028  300.15921593  293.28653812
N   292.84687042  300.23710728  291.03209972
H   292.28682518  300.11327267  290.07337093
H   294.36469078  296.82204723  291.37451649
C   294.23367977  299.47896004  292.62702465
H   294.39051151  298.66273403  293.32947731
H   295.11597157  300.08215904  292.42639542
