10
{"graph_id":"de93c884be013230a27728b86297df82d96f956f71e2b5a347825b40624b3deb","source_frame_index":15000,"representative_min_atom_index":4376886,"coordinate_units":"angstrom","pbc_unwrapped":true}
H   163.75387907  547.96652794  509.06233788
O   166.48712158  550.94661713  506.72259331
C   165.46566486  548.50220680  510.12301445
C   165.09717703  549.34835434  507.67002106
C   166.01514816  550.43711662  507.81316757
O   166.82112217  550.51422119  508.89110565
C   164.58688974  548.76232147  508.87374878
N   166.33011103  548.01435471  510.70775986
H   167.29373932  551.29618645  508.78686905
H   164.46615458  549.75800514  506.91637993
