21
{"graph_id":"7cfd8ad5f45ce3f42ae89fae6e28ccfc5cc77fb9ec0166091fd43de977581b8e","source_frame_index":16800,"representative_min_atom_index":13966,"coordinate_units":"angstrom","pbc_unwrapped":true}
H   164.95084763  227.14567184  49.23146665
H   161.57988310  229.68614101  54.19039130
H   160.72174311  228.41620445  50.80708861
H   165.82643986  228.33898067  50.02662539
H   162.50995398  231.13143444  53.37097049
H   164.09782171  229.87475395  53.81079912
H   164.41513300  230.69076538  51.22846961
H   163.04982901  230.40874004  48.07800949
H   164.56644535  227.65064240  51.16560459
H   161.81592941  228.34889889  52.17986107
C   161.66433096  228.26049328  51.02846622
C   163.40639591  229.76729870  52.94665694
C   163.62434626  229.93328571  51.45536065
C   162.83696890  229.15525436  50.50711036
C   163.56667280  228.71105671  49.47249889
H   162.01772690  227.21314430  50.90429187
C   162.03625202  230.17175198  53.19990516
H   161.26190424  230.34904003  52.32654810
H   163.50233555  229.13520336  47.35680223
C   163.70331049  229.57258224  48.27251136
C   164.77231979  227.85825729  50.08785129
