8
{"graph_id":"29877ce0b97ea2b69794b8aa52598457eaddb3fbcd4b9c965a9586f79551ed02","source_frame_index":9400,"representative_min_atom_index":8217696,"coordinate_units":"angstrom","pbc_unwrapped":true}
C   315.92011452  33.74519944  432.64470100
O   314.90895748  33.86190534  433.25867653
C   316.82837009  33.36522877  431.71377182
O   317.98844337  32.93815553  432.29718208
C   316.63892269  33.48618150  430.28554916
H   316.09580517  32.56513774  429.93206978
H   317.51587391  33.28130543  429.75091934
H   316.11557007  34.41101015  430.13381958
