8
{"graph_id":"f8f34991532c7369cdd69c908227c217e0f14016cbd7865c0ed87a3ab0e2a59b","source_frame_index":9400,"representative_min_atom_index":7565634,"coordinate_units":"angstrom","pbc_unwrapped":true}
C   387.14511395  77.43335366  403.57179642
O   387.20557690  76.93675756  404.84271049
C   386.37630939  79.55067754  403.81789207
O   386.10908985  80.58272600  404.30827141
N   387.50617504  76.68949366  402.51221657
H   387.70852089  75.67184567  402.59575844
N   386.41908169  78.45422029  403.21869850
H   387.32628822  77.04731226  401.57561302
