7
{"graph_id":"7475d8a7146842a3592da30cc7f34f43271fc60c915b5e4882c10e65066df490","source_frame_index":14600,"representative_min_atom_index":1096600,"coordinate_units":"angstrom","pbc_unwrapped":true}
H   82.42689967  43.17706525  132.54092932
H   80.02299666  41.30698740  132.38219023
C   81.35757446  43.29786301  132.62212276
C   80.26579022  43.45638752  131.60513639
O   79.68714237  44.10028160  130.66579103
C   80.47493100  42.31021404  132.24061728
H   81.07245564  43.96290481  133.44305754
