11
{"graph_id":"e63153f886887082c255ab5d264ac1c3aa9056583adb9d744dae86310aa8b24f","source_frame_index":14600,"representative_min_atom_index":909310,"coordinate_units":"angstrom","pbc_unwrapped":true}
H   178.54086161  153.84328365  267.16861725
H   180.11394739  157.37174749  266.77353382
H   180.67924976  153.06161642  267.16551781
C   179.40582037  154.51761484  266.57235622
O   179.79196310  157.00043440  265.87903500
C   180.62536716  154.16858196  267.49579906
C   178.91110182  155.91026545  266.05575085
O   178.01315784  155.90246916  265.23101330
H   179.59911823  154.00525331  265.52786827
N   180.87742329  154.59399223  268.62955093
H   181.65190220  153.91188860  269.14615631
