7
{"graph_id":"f1eaab42b7d6f40e2d4c58addd476b8d6591b317ecedf129ef70e8a2e766cbf2","source_frame_index":14600,"representative_min_atom_index":3596311,"coordinate_units":"angstrom","pbc_unwrapped":true}
H   3.40710543  419.66657639  131.14016056
H   5.24953380  420.19324303  128.93587351
C   4.30829972  419.95038986  129.18018103
C   3.12313922  419.68512535  128.25778723
O   2.61461176  418.55955124  128.28949690
O   2.53418777  420.76272964  127.91739702
N   4.25150245  420.07417679  130.49848080
