20
{"graph_id":"e7071fd372fed89fa54fb4ea3c7da5162c9655b35798f4376ea5aa6b00b18185","source_frame_index":18800,"representative_min_atom_index":475280,"coordinate_units":"angstrom","pbc_unwrapped":true}
H   509.07225609  39.66777921  541.49889946
H   504.68459129  41.85347259  543.21513176
H   506.50935173  41.67264104  544.83113289
H   504.20823097  39.02613223  544.44661140
H   508.62097740  37.77769804  543.46723557
H   503.26004028  40.98536968  544.56319809
C   509.46531296  38.11113536  542.89622307
C   503.69238853  39.90430832  544.08040047
C   504.76293564  40.73388577  543.65506172
H   509.72671509  37.54197061  541.97711945
H   508.74323845  41.24411047  543.89376640
C   506.94026947  39.67740834  544.15345192
H   510.37616730  38.07040453  543.59736443
H   506.58435822  39.34884965  543.19148064
C   508.20479393  40.47009945  543.41135025
H   507.60993958  41.13576412  542.87219048
C   509.13043022  39.56455886  542.59095192
H   507.20610619  39.00225461  544.85778809
C   505.92069626  40.62699378  544.77171898
H   502.96130180  39.98713195  543.30077171
