11
{"graph_id":"ec6a86be6a2eff4b74f296f9517276d8cfc70f00cde8f481f291a511f35b46a7","source_frame_index":11000,"representative_min_atom_index":2700841,"coordinate_units":"angstrom","pbc_unwrapped":true}
H   314.35353756  233.72790813  419.05636787
H   314.52767849  232.63239861  417.88067818
C   313.70756626  231.80992603  419.52986717
O   312.99698353  231.90207481  420.50375938
C   313.83707523  232.88705349  418.62149239
O   312.68584728  233.66138935  416.54176712
C   312.52324581  233.43460560  417.84033775
O   311.38670444  233.59975815  418.46084595
N   314.40961361  230.65412045  419.18735504
H   314.13915157  229.69851494  419.53954697
H   314.72203732  230.73573112  418.23620796
