18
{"graph_id":"71c508c1241f6e8423828858aaa1310923643c2bcbf4f3b7fd41ecf578d192cc","source_frame_index":23000,"representative_min_atom_index":806165,"coordinate_units":"angstrom","pbc_unwrapped":true}
H   381.32779598  114.38268423  411.77434921
H   381.83300495  114.80917931  415.28964043
H   378.49152088  117.10273027  411.30652428
H   379.13715839  117.60020256  413.58618736
H   381.48725033  113.57944012  414.03617859
C   381.88760281  114.58114386  414.25271034
C   378.91399860  116.58519506  413.34533691
C   379.29425240  115.48476219  414.16525841
H   378.70330811  114.85332251  410.43930054
C   378.68421078  116.31110907  412.00785637
C   380.47745228  114.98667002  413.48695755
C   380.35914898  114.57067728  412.18638420
C   383.41863155  114.85357285  413.72294426
H   383.38818550  115.88808298  414.15386200
H   383.82363319  113.95090818  414.15967941
H   383.76300335  115.03075361  412.59770393
C   379.37200069  115.08649588  411.32330894
H   379.00140285  115.77818394  415.13900757
