21
{"graph_id":"ed91be530688f6f1f10fa079ce54b1fc377d148b3340ba3cfa2e734c81a2381c","source_frame_index":23000,"representative_min_atom_index":3039651,"coordinate_units":"angstrom","pbc_unwrapped":true}
H   53.94507051  10.71555763  446.69613838
H   56.17410541  10.10957584  446.06308937
H   50.74460506  12.58037537  448.88715744
C   53.07543278  9.86292511  446.87705040
C   56.13816977  8.34240466  444.69723701
C   51.68877244  12.18137965  448.48875999
C   53.19840312  8.66031498  447.69358635
H   54.59431410  7.07137808  448.21591377
H   52.28381753  8.11283737  447.84116745
H   52.42344141  13.10481429  448.43482971
C   52.04544663  10.56905538  446.34056091
C   55.72472215  8.35539773  447.15681076
H   52.55832672  11.68147922  449.13692474
H   56.25488162  7.33060911  447.57642746
H   51.87752247  10.14668345  445.32446861
C   51.60664916  11.68979406  446.97651863
C   54.34141159  8.02164078  447.63574600
C   55.86476326  9.05453712  445.82686424
H   56.13953471  8.93215612  443.65782738
H   56.80329800  7.56142065  444.85144615
H   50.88596344  12.47448325  446.33383751
