20
{"graph_id":"3e94d7d922918af968e4a89b5bf49c8b8ad407f2c3f97dbe5885fc8bd0a2e56a","source_frame_index":17800,"representative_min_atom_index":139423,"coordinate_units":"angstrom","pbc_unwrapped":true}
H   382.61795044  409.07454491  202.88481712
H   384.43958759  406.35104179  200.00994205
H   382.35485554  410.75329781  202.80389786
H   384.88337994  409.94930267  199.76600409
H   385.80753803  408.10031891  201.58660412
H   381.32283688  409.54566002  202.23770142
C   383.83235931  409.37047005  201.45838261
C   383.71644020  411.52667999  199.89988804
C   384.59362984  408.05125237  201.67815685
C   382.39009380  409.89027023  202.18830109
C   382.47222900  412.24098206  200.57470798
H   384.77189541  407.94920921  202.64308453
H   383.16388130  407.76844025  200.40128231
H   381.90605640  411.61279678  201.08578205
H   384.49513912  412.10017204  199.34065342
H   381.77502155  412.40963936  199.79896545
H   382.86969662  413.15193176  201.27522945
C   383.90934467  406.89129829  200.87621212
H   383.57219696  406.19316101  201.53186321
C   384.23829079  410.41426659  200.56102276
