21
{"graph_id":"85298192c1f46f9698e8441b2a99b470e1c9d95d1d0e4c4a9b246bddb966c02b","source_frame_index":17800,"representative_min_atom_index":355003,"coordinate_units":"angstrom","pbc_unwrapped":true}
H   381.35304451  20.03667802  73.07397127
H   386.29467487  18.95617694  75.11342168
H   380.56206703  22.51484394  74.17176962
H   380.89740276  21.55528814  71.89278603
H   379.32546139  21.50988430  74.09745455
H   381.24539852  20.15334666  74.90497231
H   383.09948444  18.95293146  74.17408824
H   385.26952267  17.43922681  74.31538701
C   385.11321545  19.68499869  74.19635653
C   380.23965359  21.71827406  73.48533273
C   385.94856262  18.36000532  74.32319522
H   385.94157696  20.39096802  74.41880107
H   379.48498726  22.95794338  71.71525359
H   379.21566963  21.31687403  71.93738818
H   382.88459778  21.43928558  74.90815520
H   383.44676495  21.63820565  72.96153903
C   382.95276165  21.13767713  73.80073071
C   379.84178066  21.98514491  72.10564017
C   383.79113674  19.79543716  74.09064174
C   381.35402203  20.81055641  73.97139072
H   386.85162067  18.25854629  73.82865548
