17
{"graph_id":"897d8ff1620b5b249665b1ac9e904bd2ab1f6e8c107c490f8c2a0811e04bc3ff","source_frame_index":17800,"representative_min_atom_index":147988,"coordinate_units":"angstrom","pbc_unwrapped":true}
H   233.76379013  550.64802170  475.75383186
H   233.67860317  546.82736397  478.01680565
H   233.25240612  550.02784729  474.26691055
H   233.17687511  545.75839043  473.40188026
H   235.35552025  549.96776581  476.44977570
H   235.03110409  548.04420471  477.89411545
C   234.19194221  549.92003441  476.44848824
C   233.63571167  548.64211082  475.77395439
C   234.53438282  547.48911858  476.09915733
C   233.78894329  546.55299187  473.76513481
N   234.61530209  547.06435204  477.42915154
H   235.47575474  546.17094994  474.92327690
H   234.05797482  550.06365776  477.64148712
C   233.15789700  548.95949364  474.49183464
H   233.36539268  548.05235863  472.43328094
C   234.45501328  546.60925865  474.99270439
C   233.21940899  547.99113274  473.53329659
