20
{"graph_id":"d9cb2f27f66d7617e1cb80ff83d81235f41cb0a1472c8c1558495965f74e452b","source_frame_index":17800,"representative_min_atom_index":1310700,"coordinate_units":"angstrom","pbc_unwrapped":true}
H   547.91698456  235.49296856  527.35991478
H   548.66323471  240.04065990  528.46508026
H   549.74884987  235.78011990  530.09195328
H   545.51405907  235.71729660  526.40738487
C   546.46964073  237.16299534  527.33817101
C   548.35581779  236.70973778  529.06332016
C   548.46248627  238.97423744  528.37748528
C   547.31416702  236.27092838  527.97865868
C   545.14174461  236.54081821  526.94711685
H   547.85952568  236.01613045  530.92069626
H   544.31428909  236.44881248  527.42199898
H   544.69561577  237.31400967  526.16300583
H   546.55904770  235.68148613  528.65247726
H   550.17409325  238.05940151  529.09841537
H   547.40948677  239.07318115  529.07958031
C   549.14999008  238.04030418  529.13370132
C   548.53138924  235.82525253  530.04994392
H   546.88215256  237.82913685  526.32966042
H   547.94921875  234.71257687  530.17668724
H   548.17819595  238.88196945  527.30364799
