20
{"graph_id":"ee8c0b8c982792acbeac4c2f8b2fdc52b6c0518e40992837f9f3f3e7f3f76ec6","source_frame_index":17800,"representative_min_atom_index":707275,"coordinate_units":"angstrom","pbc_unwrapped":true}
H   109.49593782  207.46705532  88.91283274
H   108.29253197  208.68055820  87.79322505
H   107.31304884  207.02865124  88.26791048
H   107.64691830  207.19563961  91.36924744
H   107.61861801  210.20903587  88.32915425
C   108.93548727  206.99450970  89.78976607
C   107.26443529  212.20519543  89.34192657
C   107.17611313  210.72356701  89.17521834
C   107.41235018  208.52963924  89.36298490
C   107.76674747  207.37364292  90.30253291
C   107.37708807  208.14833641  87.90190816
H   110.57536602  205.51645756  90.50478935
H   109.28990841  205.02622128  90.64617157
H   107.63028860  212.39356995  90.29359818
H   110.27549505  206.56058788  91.44301414
H   106.58820868  208.54780674  87.42229342
C   106.81518316  209.66925621  90.03023505
H   106.07457161  209.32252407  90.80996513
H   106.77044392  212.72857189  88.43364120
C   109.81487036  206.13889694  90.64612389
