9
{"graph_id":"0be08c6f92d1babe556ab0592a5c357fb10d3b35b70fd5d45de97a24ef69b7d7","source_frame_index":10000,"representative_min_atom_index":5899388,"coordinate_units":"angstrom","pbc_unwrapped":true}
O   314.86117840  32.06277788  431.87065125
C   314.88378048  33.38226080  432.02495575
O   314.47331905  34.17238295  433.01129341
C   315.47138691  34.12563205  430.95602989
O   316.75050259  34.15054083  431.09955788
C   314.72990513  34.65187550  429.80861664
H   314.01996613  35.40810943  430.09076118
H   314.16065693  33.74340832  429.31103706
H   315.58256149  34.98408496  429.25505638
