7
{"graph_id":"95b2d14983029d68116bcc2b2e3d67dce0983df0558d35f60c8e962d44ef0d8a","source_frame_index":10000,"representative_min_atom_index":3853271,"coordinate_units":"angstrom","pbc_unwrapped":true}
O   216.57733917  224.39038754  343.65887642
C   215.54205418  223.97875786  343.07034016
O   214.36381340  224.38504696  343.16849709
C   215.86883068  222.71432877  342.27204323
H   216.77312851  222.35200405  342.60337353
H   214.95995522  222.19369411  342.01741219
H   216.37122631  222.96874523  341.24412537
