9
{"graph_id":"cd2f1d540293943f7d0ead2f6e6bb03ba1cfd567db401184ac02b0f0174b53ab","source_frame_index":10000,"representative_min_atom_index":956048,"coordinate_units":"angstrom","pbc_unwrapped":true}
H   106.61876202  200.14779568  360.65042019
H   107.19155073  200.55053234  362.93213367
C   106.07393980  200.78732967  361.36391163
O   106.78099394  201.37183666  362.39860058
C   105.50931692  201.98614597  360.49480438
H   105.44480085  200.06322861  361.84742451
H   105.13418913  202.71637440  361.10286713
H   104.72444296  201.46353245  359.84516144
H   106.36543036  202.49950886  360.07397175
