9
{"graph_id":"e8b16496c1f7202620dd62c33b19719b06755d82a43bae8b4b0f64012ff2bd14","source_frame_index":10000,"representative_min_atom_index":347356,"coordinate_units":"angstrom","pbc_unwrapped":true}
H   288.93299103  135.45540571  389.20514584
O   287.26572990  135.51213741  390.71376324
C   289.22138214  134.45715904  389.37890530
O   289.68665600  133.63586664  388.63265514
C   287.91742325  134.65106487  391.28232002
O   289.16773796  134.22447443  390.62125683
N   287.78986931  134.07768011  392.52891541
H   286.93170547  134.23870802  393.07849407
H   288.65146637  133.98349285  393.04370880
