7
{"graph_id":"f1559bc1c4eb49a25095cd60a912d60b534e25d8d1f64773c32ae617d211a727","source_frame_index":10000,"representative_min_atom_index":15618612,"coordinate_units":"angstrom","pbc_unwrapped":true}
N   496.33302689  511.19799614  190.23433924
H   495.75252533  511.73548698  189.66047764
H   495.81217766  510.69793701  190.85152149
C   497.41187096  510.56509018  189.55930471
H   497.94359207  511.26441956  188.82915974
H   497.14765549  509.57026482  189.12166357
H   498.23336601  510.46380997  190.32796621
