7
{"graph_id":"f427d56cc44e19018759a585fe210c76dcd848975d9e38dc432e642fa8608b0a","source_frame_index":10000,"representative_min_atom_index":7565634,"coordinate_units":"angstrom","pbc_unwrapped":true}
C   388.17851543  77.98390388  404.20703888
O   387.92045116  77.08323002  403.37896347
C   386.93101406  79.60733771  403.23901176
O   386.95964813  80.07523417  402.19340324
N   389.29708004  78.01320553  404.86617088
H   390.05844593  77.19593048  404.49209213
N   387.12825775  78.99416685  404.24818993
