11
{"graph_id":"0bf0b6a4f47e1613d9c00c4b18fa03ec00cb074193df1c2e02ab1c128e266065","source_frame_index":16600,"representative_min_atom_index":284022,"coordinate_units":"angstrom","pbc_unwrapped":true}
H   244.06387806  392.11947918  462.46218681
H   243.35272312  392.10231304  458.10484886
H   243.23685169  390.46275616  461.73086166
C   242.96972752  392.06664562  460.26616096
O   241.81478024  392.16802120  460.54644585
C   245.29061317  391.67714119  459.41057205
C   244.05386448  392.10243225  459.01646614
C   245.26216984  391.20469093  460.82224846
C   243.95959377  391.47381783  461.41829491
H   245.62494755  390.37685394  461.49010658
H   246.06320858  392.02256203  458.94298553
