17
{"graph_id":"1d0a4c0ebfbbe4ac2af2436c15165b11b74216ea8372b527b16bf61e38aade89","source_frame_index":19200,"representative_min_atom_index":2439071,"coordinate_units":"angstrom","pbc_unwrapped":true}
H   317.69592762  522.04060555  148.36986065
H   316.29033089  522.37620354  145.80172300
C   318.88494492  523.70309830  148.57634306
C   317.07291603  525.12564659  147.19907045
C   317.06435680  523.66271019  147.21722603
C   320.12321949  522.74160385  149.02646542
C   317.72663593  523.08869362  148.21135998
C   318.96417141  525.08115768  148.52193594
H   318.29192638  526.78580284  147.35336304
H   319.74823475  525.37240982  149.34091568
N   315.95392227  523.18053246  146.33905888
H   319.65701580  521.81525230  149.14517403
H   315.87224007  523.70600700  145.52818537
C   318.18380356  525.79984665  147.71078825
H   321.16615772  523.01716805  149.52992201
H   316.59262180  525.46343803  146.27903700
H   320.35756111  522.48830795  147.93727398
