21
{"graph_id":"1eea95f239c9948b632d4643323ff6e63a7fd1fe937237f959c59b68db1f7aaa","source_frame_index":19200,"representative_min_atom_index":135698,"coordinate_units":"angstrom","pbc_unwrapped":true}
H   282.41972923  301.63829327  131.99781179
H   287.87729740  307.48865604  134.31748152
H   285.38005352  301.73919201  133.36409330
H   288.19234371  302.93471813  133.35968256
H   282.03184605  303.47182751  132.35969543
H   288.00058365  306.45887852  133.31379890
C   284.02206898  302.87420750  132.25177526
C   285.87198257  305.90331554  134.18730497
C   285.36295891  302.78306007  132.96315670
C   286.17885113  303.91843319  133.21151733
C   285.67154408  305.15823364  133.03898573
H   288.08248043  304.57952023  133.97111893
H   287.54487038  305.88684082  135.15113592
H   287.32514381  303.12857628  134.99778509
H   285.18607616  306.40211105  134.74444151
H   284.65046883  305.18436432  132.56762028
H   282.41250515  302.43680477  133.54576826
C   282.67736435  302.53336430  132.62652159
C   287.51561642  303.71625423  134.10788774
C   287.30738163  306.57303333  134.21704769
H   284.40937996  302.52325535  131.31909370
