21
{"graph_id":"4f2a036000c65c59497b2fc14275f08227d6f9944902b24436f23acaccd53218","source_frame_index":19200,"representative_min_atom_index":738470,"coordinate_units":"angstrom","pbc_unwrapped":true}
H   70.85282207  58.70426893  417.40555763
H   70.76923251  57.34345913  414.00761604
H   73.83608222  56.81505203  413.65356445
H   72.99664617  58.90710354  416.36171341
H   70.11005282  57.75200129  415.89207649
H   71.45323157  57.37023354  416.94192886
H   72.41741419  57.04680681  411.96684837
H   74.30721521  58.65112543  412.94002533
C   70.57315707  57.93324113  410.99877357
C   72.49332070  58.26799273  414.29276466
C   70.91088295  58.13368559  416.45350456
C   71.66284919  57.95426965  412.07933426
C   71.38565183  58.02373886  413.50817680
C   71.99580669  58.90317559  415.66371918
H   69.73285675  58.66043568  411.38710976
H   72.16022015  58.96788836  411.94210052
H   71.89685702  59.90638137  415.38715363
H   71.06844783  57.89908767  410.08439064
H   70.15351653  56.90571666  411.09495163
H   74.58633184  58.14751983  414.48769569
C   73.90667200  57.81810284  413.78536224
