12
{"graph_id":"5e33b706ec59c50f7d576e1f6c0d445a627035ccf42f49b4aabc40718f024811","source_frame_index":19200,"representative_min_atom_index":5118919,"coordinate_units":"angstrom","pbc_unwrapped":true}
H   416.12577438  56.94894195  21.52979672
H   414.05587196  58.68894458  20.88680118
C   414.25690651  57.66300559  18.86693388
C   414.73569870  57.92563558  20.10836899
C   414.97797966  56.35513663  18.56551766
H   414.71018791  58.29241872  18.05180013
H   413.93971443  54.92692590  17.09852070
H   415.61856270  55.11510372  17.01619476
H   416.92276001  55.44880629  19.75130886
C   414.65849876  55.70130348  17.37894416
C   416.02697372  56.21660948  19.57449019
C   415.73724747  57.11959600  20.64352781
