17
{"graph_id":"a73524db05b25216b542723c64183e6d7c4ca1e2388c1ebba1d27b04b31ede76","source_frame_index":19200,"representative_min_atom_index":908883,"coordinate_units":"angstrom","pbc_unwrapped":true}
H   185.23445129  58.70094895  133.70841742
H   182.21349716  57.57765174  133.84197950
H   180.60773611  55.09496331  136.15657091
H   184.73032713  56.51658773  137.79475689
H   180.05746603  55.94543219  134.89412069
H   183.93980265  60.04396677  133.87061357
C   184.08972025  56.96819425  137.07431555
C   182.75938034  56.44754767  137.03392744
C   180.66679239  56.26958609  135.77456474
C   182.45254755  57.78847933  134.89298820
H   182.76824951  55.63542247  137.55229712
H   180.04366159  57.10802078  136.29349470
H   185.55548191  58.31202269  136.78232431
C   184.68862772  57.91124105  136.37098074
C   182.07199574  56.85791969  135.84750891
C   183.92400742  58.31693411  135.24698019
C   184.49186087  59.33696628  134.28546190
