14
{"graph_id":"30cbe3ddcb2d20ab178edd75ccada784848f4fc5dd6057574591e8eac45d7d03","source_frame_index":21400,"representative_min_atom_index":1223287,"coordinate_units":"angstrom","pbc_unwrapped":true}
H   476.64647102  389.20269012  123.55332375
H   475.40941238  385.05978584  125.42365789
H   474.43842888  388.35277557  121.99319601
H   475.89488029  389.28983212  125.42647123
H   476.83057785  387.10141182  124.92095232
C   475.65641403  386.79349422  124.77885485
C   474.48086739  385.28792858  123.43893051
C   475.36959648  385.45181751  124.58317280
H   475.26769638  389.94004726  123.93292189
C   475.94923973  389.32385445  124.34116602
C   474.37725067  387.88478374  123.00742865
C   475.52142143  387.91325092  123.99309874
C   474.06797409  386.41350269  122.71269560
H   474.34444427  384.45122242  122.92907238
