22
{"graph_id":"4f11d478372ea976efe58cccb47731dc574dbeb137f1155cd866fc6b59fd733c","source_frame_index":21400,"representative_min_atom_index":765557,"coordinate_units":"angstrom","pbc_unwrapped":true}
H   384.96387005  76.49085522  305.53624630
H   384.22462940  77.76575685  306.66723251
H   379.20856476  79.32898998  308.06548595
C   382.97569752  77.04254985  305.25119305
C   379.55625057  77.77525783  306.73213005
C   379.89392281  78.64770293  308.00807476
C   384.28180218  77.40269899  305.62674999
C   382.75856972  76.02822781  304.00750637
H   383.54008198  75.46073794  303.35671902
H   378.52609158  77.48074532  307.01277256
H   381.01451397  80.07057309  305.24351597
H   382.18829632  75.17979741  304.13205624
H   380.81691265  78.91345620  307.92310238
H   380.83133698  79.15078998  304.17318344
C   380.56664467  77.22881436  306.03849888
H   382.07547665  76.33399367  303.36074829
H   384.59668159  78.40751410  305.19678593
H   380.49163818  76.23036504  306.35807514
C   381.67228699  79.22660708  305.00371456
C   381.83937073  77.81051397  305.71248531
H   382.42375851  79.85970974  304.84397411
H   380.02052307  78.26640606  309.08751488
