16
{"graph_id":"d101cde3b93fa0f5476c81407bd52873dd4353f4f7b95c10e30293ad59f80455","source_frame_index":21400,"representative_min_atom_index":970843,"coordinate_units":"angstrom","pbc_unwrapped":true}
H   229.88781929  467.93012619  239.81883526
H   227.30731964  466.52855873  243.67904663
H   225.89678764  470.36099434  240.57929516
C   230.10718822  467.24467278  240.73827267
C   225.55882931  467.60921478  243.01352501
C   226.84118748  467.26622581  242.88179874
H   224.15540218  468.90006065  242.10536480
H   229.19974327  466.11948013  242.40036011
C   227.20530033  468.70141029  241.11967087
C   227.69408226  467.66147614  242.02971458
H   224.71785545  467.21034050  243.55802536
H   231.01930618  466.67475700  240.60637951
C   229.18422222  467.09904671  241.86246395
H   228.00898552  468.97783279  240.37539959
C   226.05688572  469.38295364  241.18454456
C   225.25899410  468.71428490  242.03581810
