8
{"graph_id":"160a093f300394f6dfffe85ee7a1a65eea4adb4532b85d3f1e1a2af5313a902c","source_frame_index":14000,"representative_min_atom_index":4849281,"coordinate_units":"angstrom","pbc_unwrapped":true}
H   77.98972726  424.35636520  203.71091366
C   79.08484340  424.74989891  202.33945847
O   78.22469473  425.24843216  203.31475735
C   78.80471945  424.72176552  200.87614059
O   80.00785112  423.95949364  202.75969505
N   79.86819148  424.68686104  200.06167889
H   80.11760116  425.49357414  199.39039946
H   77.73296237  424.50451851  200.68390369
