7
{"graph_id":"62f999208b1717d3b0fbd2f4965e86e35d25af6fe3b960d486b2aac891bf2f4b","source_frame_index":1400,"representative_min_atom_index":1964159,"coordinate_units":"angstrom","pbc_unwrapped":true}
H   115.94443321  492.82460213  206.34212494
O   115.02275467  492.02241898  208.49516392
H   114.55054283  492.47903824  207.73782730
C   116.33604765  491.53170586  207.96267986
O   116.99641943  490.75388908  208.63263607
C   116.68734550  492.12536812  206.70714378
O   117.79335737  491.92042351  206.14688396
