7
{"graph_id":"f5dd29d0bc6941b8361ae202cbf902f34d738ab37546dbb09b5962ee31cd1218","source_frame_index":1400,"representative_min_atom_index":4849426,"coordinate_units":"angstrom","pbc_unwrapped":true}
H   218.21210384  222.57192135  89.73774314
C   218.78852844  223.43709469  91.70240760
O   219.57738400  224.37674999  92.21453667
C   219.03357506  223.07717800  90.28605819
O   220.03979683  223.44253063  89.59847689
N   217.84727573  222.81110287  92.40433574
H   217.68171787  223.26419353  93.33931804
