9
{"graph_id":"51c4edeaf182258d0848ebb30e7fd7c13619ab6919edf63388f5c8faf42f9381","source_frame_index":13000,"representative_min_atom_index":6993270,"coordinate_units":"angstrom","pbc_unwrapped":true}
H   107.63643980  501.30186081  243.41144562
C   107.35955238  501.29437447  244.43387985
O   108.06559324  502.20546722  246.49803638
C   107.78228045  502.51784325  245.09947300
O   108.10526609  503.66458893  244.85502243
H   106.92099333  499.46208000  244.00765896
H   108.88915062  501.86853409  246.36762142
N   107.16954470  500.06475449  244.91140842
H   107.28430748  500.05626678  245.91131210
