9
{"graph_id":"16002dd010290a56045cb1674fa71b1bdb30524b969dcba0ba805dc05dcd2d33","source_frame_index":15800,"representative_min_atom_index":562811,"coordinate_units":"angstrom","pbc_unwrapped":true}
H   371.14408016  331.08844757  231.52923584
H   372.10948467  329.03714180  231.56919479
C   372.20997810  331.34632111  231.88645840
C   373.30765724  330.58803082  231.08451366
C   373.19874763  328.97889614  231.26163483
C   373.39305878  331.83071613  231.56325817
H   373.80409241  328.94446850  232.14390278
H   373.52409363  328.79269123  230.39090633
H   373.72982502  332.86149502  231.13241196
