10
{"graph_id":"1864fea13acd2e3b5d39487887f9b5667d9d3ba64593b7fb8f5e57308c16370f","source_frame_index":15800,"representative_min_atom_index":7459733,"coordinate_units":"angstrom","pbc_unwrapped":true}
O   499.36318398  219.81630325  438.75946999
C   497.21527100  221.03497982  438.05589676
C   498.61698151  220.97837925  438.68422508
O   499.09739494  222.08783627  439.02482986
H   497.57122993  218.96436214  437.41683960
N   496.93150520  219.74349022  437.61887550
C   496.45190239  222.32346535  437.98346519
H   497.01890945  223.16901684  437.91012764
H   495.62735558  222.27621078  437.38460541
H   496.11434937  222.26419449  439.02707100
