13
{"graph_id":"392d73d08575a7a153dbb0f8d2da5a7c299cc5a9b7af32ce5da175166e830d03","source_frame_index":15800,"representative_min_atom_index":3218125,"coordinate_units":"angstrom","pbc_unwrapped":true}
H   255.21700382  154.84179258  332.58492947
H   255.33804893  156.24203682  330.73737621
H   257.31952190  154.24445868  333.32271576
C   255.02583981  154.37388420  331.48114681
C   255.85143566  155.37551641  330.93643188
C   254.92539406  153.17201614  330.74672222
O   257.43277073  154.20410633  332.31494427
C   256.88450336  155.46525717  332.06253052
O   257.02316761  156.54548407  332.53228664
N   253.98335457  152.13844776  331.38065338
H   255.33597469  152.89332867  329.84397411
H   253.78737450  151.52945518  330.38887978
H   254.80113029  151.66320801  331.67774677
