11
{"graph_id":"8bba46178f12158189c12a1309bf29ba45bba173c0348daca5b7eaeab0c89f10","source_frame_index":15800,"representative_min_atom_index":159629,"coordinate_units":"angstrom","pbc_unwrapped":true}
H   181.90412521  364.12494183  534.74230766
H   181.58397675  366.20407104  535.85987091
H   180.71159124  366.41674042  534.72504616
C   179.27831411  363.70697021  535.57567596
O   178.97529602  362.79656887  534.52167511
C   180.31485081  364.56887722  535.23936272
C   180.55673838  365.84441662  535.62026024
O   178.38592529  363.62457275  536.52224541
H   181.63053989  364.84081745  533.66889954
H   179.84207869  366.14925861  536.45529747
N   181.03445768  364.23377991  534.08565521
