10
{"graph_id":"c6d23be88d1114a3cb33a282b3f2075b1e9dbe67d09458550171484e1c44ac27","source_frame_index":15800,"representative_min_atom_index":2450810,"coordinate_units":"angstrom","pbc_unwrapped":true}
H   217.46542454  243.72622967  549.80788231
O   219.61491108  242.27945805  548.76761436
H   219.43705082  245.89025974  547.15018272
H   217.68038273  244.37057972  548.33240509
C   218.94292831  244.74544525  549.03969765
C   219.77384090  243.53518486  549.38030243
O   220.71366310  243.44649315  550.28910637
C   219.17531490  245.72725296  548.09670448
N   217.64950752  244.64433193  549.32923317
H   218.08273792  246.24414444  547.76930809
