11
{"graph_id":"d8e81dc3a67c7a21e715265f7e1a83ecc52b80a7ee327bbdda8beb6660d7a84e","source_frame_index":15800,"representative_min_atom_index":1439320,"coordinate_units":"angstrom","pbc_unwrapped":true}
H   281.67102337  278.30133438  310.66603661
H   281.96711540  282.34970570  311.51988506
C   282.44562149  281.29515648  311.54875755
C   282.48829842  278.59222889  312.33952045
C   282.76126385  280.30288219  310.57279110
C   282.60385990  278.91004086  311.08393669
C   282.62472153  280.88414669  312.82880306
C   282.41834641  279.71053123  313.28008175
H   282.41107464  280.48965931  309.60433483
H   281.77688122  279.56790924  314.30394650
H   282.03122616  281.53402805  313.41311932
