10
{"graph_id":"e14d00c8102db1f1f659fd333ecea7bd1fd37516ad268dbb1e2eac7081cf4f27","source_frame_index":15800,"representative_min_atom_index":3045624,"coordinate_units":"angstrom","pbc_unwrapped":true}
H   308.91692638  86.26346588  462.07771301
H   309.60385799  83.77780914  463.48457336
C   309.22021866  86.45920753  463.08603287
C   308.68871212  87.93056607  463.08636665
O   308.69181156  88.52320910  462.10117340
O   308.71231556  88.77055049  464.05405998
N   309.95664597  84.40529108  464.28523064
H   309.31539536  84.34146047  465.06724358
C   309.96701717  85.85492969  464.04018402
H   310.64758301  86.44579053  464.49661255
