9
{"graph_id":"8f5761bbb737c845bf326d66fddab0c855206399266a3677a806b04bffdb1b79","source_frame_index":10200,"representative_min_atom_index":8099466,"coordinate_units":"angstrom","pbc_unwrapped":true}
C   483.69731903  42.79341698  148.13483953
O   483.18510056  42.66404212  146.85536623
C   484.83200073  41.46160781  149.82340336
O   484.67040062  41.26189649  151.00153685
N   483.80637169  41.79481566  148.97743464
N   483.73026848  44.19560432  148.59834909
H   483.64591599  44.71283555  147.73572683
H   484.59715843  44.45830882  149.15901423
H   485.83722115  41.34744108  149.35004711
