11
{"graph_id":"b6a5be139bb29525e80dbad3696df0e1b3b1ba88f1f035ba3b67f4bf94547a1e","source_frame_index":10200,"representative_min_atom_index":7485700,"coordinate_units":"angstrom","pbc_unwrapped":true}
C   279.10721302  291.13993645  394.42048073
O   279.34482098  291.43738747  395.68688869
C   278.04443836  290.28689861  394.31271553
O   277.97534466  289.54617977  393.29452515
H   276.46865845  289.45145607  394.86286640
N   277.11558342  290.12999535  395.17371655
H   277.21359730  290.37377834  396.15845680
C   280.04343510  291.19684696  393.30067635
H   279.76675034  290.53053856  392.40429401
H   280.97646236  290.73536396  393.72215271
H   280.45637608  292.15667248  393.04726124
