20
{"graph_id":"a9b63fb4aa3cf0a95d06e50439e63970536a256891046ba7de6d193cd0436b57","source_frame_index":17000,"representative_min_atom_index":111520,"coordinate_units":"angstrom","pbc_unwrapped":true}
H   451.75032616  481.13508224  48.65581691
H   454.86850739  483.33439827  50.16863346
H   452.78272629  486.03219986  45.75220048
H   454.10914421  486.04335785  49.77622628
H   451.62968636  483.00619125  47.83305228
H   455.38549423  481.98876381  49.35623705
H   455.18655777  484.84325409  49.41236079
H   454.77232933  486.36207581  48.42959940
C   452.71134377  483.48774910  47.93144763
C   453.41525078  482.52143860  48.62820208
C   454.50553894  482.37872124  49.79792237
C   454.46586609  485.39576530  48.88968468
H   452.73904800  480.50203323  47.69458473
C   452.73294449  481.07142448  48.62585068
H   453.13549042  480.52992821  49.47618544
C   453.41219902  484.75813866  47.84552157
H   454.06308174  481.77657127  50.71550608
C   452.90493965  485.92891693  46.86868191
H   453.61280441  486.71536446  47.04688489
H   451.88808441  486.20314598  47.12820947
