12
{"graph_id":"f5ab971085da3da98b2183c5c15919646eb6cfc50f6ac17eb0663cbd1a94c434","source_frame_index":17000,"representative_min_atom_index":335144,"coordinate_units":"angstrom","pbc_unwrapped":true}
H   423.63767624  544.55647469  407.75380135
H   421.88463211  540.18874168  407.09524155
C   422.79601097  540.85030556  407.32631683
C   423.22902679  543.60737801  408.02063942
H   421.14543915  543.63880157  408.08329582
H   423.45380783  542.22836494  406.23245239
H   421.74863815  542.40679741  407.95421600
H   423.18782806  540.23609161  406.54649734
C   423.03447723  542.34690666  407.12561607
C   421.92335129  543.51367950  407.56278038
H   423.43726158  540.60435295  408.15081596
H   423.54059219  543.06454659  408.80331993
