8
{"graph_id":"423d7836ec9059a50e09f217ae4773445b27921ff212a5450d8013aaf55a7c03","source_frame_index":4200,"representative_min_atom_index":6686663,"coordinate_units":"angstrom","pbc_unwrapped":true}
O   88.99852633  430.59873581  46.96458280
H   88.24675679  431.22324944  46.67248726
C   88.89498115  431.28623962  49.26181436
O   88.12722564  431.11705780  50.24141669
C   89.01478648  430.21006584  48.30083549
O   89.35346007  429.05850410  48.59249294
N   89.85689282  432.19256401  49.22908247
H   89.62694407  432.98077583  49.80458915
