17
{"graph_id":"85bbfdd109a0f637d18f413aad1e75e69d5db6eafd5ed474ad864ab7339961d9","source_frame_index":21600,"representative_min_atom_index":903682,"coordinate_units":"angstrom","pbc_unwrapped":true}
H   258.61175060  229.71961498  444.74377632
H   260.45985222  225.51918030  447.79853821
H   260.77015400  227.67539024  449.25198555
C   259.73997116  226.38080120  446.08497620
C   259.10205841  228.85603905  445.23134232
C   259.33616161  229.33073044  446.58732414
H   260.20605564  229.86257076  446.47841454
H   259.56923962  229.80232239  449.78365898
C   260.16092300  226.46853924  447.39203453
C   260.38434505  227.51529217  448.31953049
C   259.44502354  228.73799801  447.86877632
H   258.04646015  227.35965252  445.08504868
C   259.14709568  227.35083103  445.17760277
H   258.68079662  230.43944836  448.38986397
H   260.26988029  225.43122768  445.66860199
C   258.96210670  229.59363461  448.96268845
H   257.98442364  229.39007282  449.42030907
