14
{"graph_id":"8b884796ffaf8819cff3bf1c07442a192b4166a8b08c250ee385b48542d77729","source_frame_index":21600,"representative_min_atom_index":3479767,"coordinate_units":"angstrom","pbc_unwrapped":true}
H   119.76439953  84.18087959  263.89834881
H   115.86744785  83.28506351  263.31517696
H   119.92458105  83.29541087  266.13764763
H   118.21292639  83.59233141  262.09568977
C   118.47660542  81.69989586  266.00790024
C   116.73461199  82.88008571  263.61551285
C   117.86201000  80.89054227  264.67351913
C   117.00916290  81.41199946  263.87045383
C   119.20794249  82.82656670  265.52450657
H   117.98437834  79.98172641  265.08195400
C   118.04597378  83.43281150  263.19599152
C   119.09705400  83.44869614  264.11356926
H   116.74401760  80.80297709  263.08908463
H   118.74252558  81.27264380  267.04969406
