21
{"graph_id":"ed939fda684fc0be7c40fb96a80a760837d37901265a08081a8d672ac6ec9c88","source_frame_index":21600,"representative_min_atom_index":625009,"coordinate_units":"angstrom","pbc_unwrapped":true}
H   453.77230644  147.04245329  260.26008129
H   454.11205292  142.59811640  256.85551167
C   454.32600975  145.40532827  258.27748775
C   453.53350639  142.87017584  258.90719891
C   453.94778252  145.95263004  260.85965633
C   453.56392860  143.75073910  259.89060402
C   454.02903557  143.20877790  257.73682594
C   453.84378433  145.06524801  259.64109898
H   453.92112732  141.21642113  257.95316696
H   454.81777191  145.92369795  261.29508018
H   454.20947075  147.29074240  258.28111172
H   453.09505463  145.83003521  261.27688885
C   454.56480980  144.34283972  257.37111568
C   453.46083641  141.38903618  258.92343521
C   455.11307716  146.69545889  258.18350315
H   453.61609459  143.34874153  260.92014313
H   455.95126152  146.79740667  259.00735855
H   454.09135818  140.88890553  259.76207256
H   452.43611336  141.26261473  258.96117687
H   455.43456078  146.69883251  257.27951527
H   455.14469147  144.53883171  256.42292500
