10
{"graph_id":"39f4bdb6689af0ac04d1586c35a254177ceccaadc07c53e7bff276b4fbaec71a","source_frame_index":16400,"representative_min_atom_index":920809,"coordinate_units":"angstrom","pbc_unwrapped":true}
H   220.64397335  169.54107285  85.98670363
H   218.27654839  168.41846704  89.53725100
C   219.20790672  170.07979155  88.82802129
C   220.19524574  170.67028284  87.91034818
C   218.84548664  168.82352829  88.66916895
C   219.78368759  168.30660105  87.64697313
H   221.22931480  171.34926319  88.14572692
H   220.03016472  167.26267338  87.03215718
H   219.11027431  170.50802708  89.81157541
C   220.39430141  169.56747770  87.10498214
