8
{"graph_id":"fff891efa5a8c7146f94d1eba55c8a778c63b55a78c38cef2d21e276bbaf36b4","source_frame_index":16400,"representative_min_atom_index":2203823,"coordinate_units":"angstrom","pbc_unwrapped":true}
H   138.09999228  326.91447735  74.95563626
H   137.47377396  325.98762512  72.53248096
H   140.05343914  325.29780865  73.45606685
H   138.83452415  327.35912800  72.48335481
C   139.02117014  325.19981861  73.59609008
C   138.36501837  326.39355659  72.95755148
C   138.10455799  326.20201111  74.39590693
H   137.26562262  325.64494610  74.41747189
