9
{"graph_id":"0f978edfd805fa6e5726b6bf6e51692dd3663df58e7e243b17d838ccbfe220fe","source_frame_index":8000,"representative_min_atom_index":3306016,"coordinate_units":"angstrom","pbc_unwrapped":true}
H   477.76637077  356.34047985  358.75623226
O   475.25510788  358.20672512  355.90832233
C   476.52187347  357.99770355  356.24969006
O   477.50401497  358.44848156  355.63743114
C   476.66587830  357.23266602  357.50832558
O   477.87871361  356.77278042  357.89134502
N   475.59628487  356.97848797  358.22842121
H   475.53529739  356.70087337  359.24191475
H   474.71904755  357.42168427  357.89425373
