20
{"graph_id":"231817c3cbd96ea7c8ac9d7f815dca9e25f7a9bfdf390c9b772e11dedc22ef93","source_frame_index":17400,"representative_min_atom_index":3020,"coordinate_units":"angstrom","pbc_unwrapped":true}
H   238.36638927  293.29376221  158.97676945
H   241.97547436  292.59924889  157.14453459
H   240.28708935  292.53840446  156.96017742
H   237.20071316  291.42596722  160.68624258
H   234.40458775  290.03632069  161.31057739
H   240.59512615  291.11297131  158.25122595
H   235.42685509  291.19021893  161.60668135
C   234.70876217  290.82441330  160.83509922
C   237.68355846  291.42096043  158.46256018
C   241.11244678  292.93198586  157.58128166
C   235.54105759  290.44387341  159.61884260
C   238.71238232  292.29857922  158.65918398
H   235.56811810  289.44079876  159.52240229
H   235.53323746  290.92786312  158.60869884
H   233.77852440  291.28458500  160.34605503
H   237.09161282  291.27848148  157.56968260
H   240.39716721  292.03541279  159.72272158
C   240.33348560  292.00773239  158.68384838
H   241.10724926  294.05972958  157.80817270
C   236.79387569  291.25621319  159.60593224
