20
{"graph_id":"c73c5e6533abb335564c046998a12db8b0018ebf82f13e48d0d366b898cd97e8","source_frame_index":17400,"representative_min_atom_index":958955,"coordinate_units":"angstrom","pbc_unwrapped":true}
H   194.56825256  446.39306068  5.93124814
H   195.12109756  445.19538879  6.87487796
H   192.37493277  447.47977257  4.43711057
H   191.22625589  443.39365959  5.44942394
H   193.38034391  443.85375977  2.76527256
H   191.17224216  446.38891220  5.12707233
C   195.32955885  445.66845894  5.86436689
C   192.62050390  445.00956535  4.64713685
C   193.91758442  445.13812065  4.39060703
C   194.82107162  444.37313080  5.15198782
H   195.64005136  443.90163422  4.49137427
H   196.19234800  445.64948082  5.21976426
C   193.75457764  445.02558708  2.76271757
H   192.96979904  445.59502602  2.37401091
H   192.02665091  444.52176094  6.58544227
C   192.02817678  446.43278122  4.49860394
H   191.64694548  445.98703384  3.41473147
C   192.09650755  443.90234947  5.74024580
H   192.71043539  443.17402840  5.95590882
H   194.67601776  445.22509575  2.21425053
