10
{"graph_id":"197e65ebd80b49ead41e278341553e8dc27b8b00d419f34303f6e78c2a2ee2df","source_frame_index":13600,"representative_min_atom_index":1841693,"coordinate_units":"angstrom","pbc_unwrapped":true}
H   363.98029327  389.40556049  529.38947678
C   362.53993511  388.24932575  530.70516586
O   362.38105297  387.80345917  531.90298080
C   363.60130310  388.37158680  529.70533371
O   361.34355068  389.06085491  530.38978577
H   364.40975666  387.96849251  528.00731659
N   364.17191029  387.49034405  528.96785736
H   360.76138020  388.93659115  531.12001419
H   363.34340572  387.83700466  532.45120049
H   363.79125118  386.47472858  529.06007767
