10
{"graph_id":"2012f00f41250bb643edbc1a5919286e93e3d92fb295ae07b057eb61ff3d2ac9","source_frame_index":13600,"representative_min_atom_index":3738849,"coordinate_units":"angstrom","pbc_unwrapped":true}
H   228.78665924  477.27317810  464.15367126
H   226.63266659  474.89910126  462.62784004
C   228.08730602  476.48291588  462.60218620
O   228.46944332  477.52728462  462.11681366
C   228.56681347  476.18532181  463.86928558
O   227.20289230  475.56929588  465.58547020
C   228.20563316  475.25324821  464.95337486
O   229.08358574  474.35507774  465.12508392
N   227.23457813  475.35161972  461.98406219
H   227.58488655  474.94087219  461.16766930
