12
{"graph_id":"2dd1301f36570d8746983b9a3deb221995abb0cc874f63c759d43587161f533c","source_frame_index":13600,"representative_min_atom_index":2636836,"coordinate_units":"angstrom","pbc_unwrapped":true}
H   155.65391779  548.44026566  41.83459282
H   154.16477919  545.92490196  41.08962715
C   156.69459105  548.82426262  43.51159632
O   157.82035589  548.89554977  44.15102005
C   155.78013659  546.64783478  42.49095619
O   156.06929064  549.88760948  43.79864633
C   156.39423132  547.97863960  42.20361710
H   155.37140369  546.52915001  43.37398112
H   155.71931601  545.80516815  40.62493742
N   155.09508848  545.92475891  41.32637084
H   154.96894121  549.84130859  43.77857745
H   157.12201595  548.12378883  41.38486981
