9
{"graph_id":"f5d2db0e6ef151b8a12bc1c700752792807d68457f3b463320467f6c8de92cf0","source_frame_index":13600,"representative_min_atom_index":5976427,"coordinate_units":"angstrom","pbc_unwrapped":true}
H   379.17141914  445.79815865  507.64412880
H   380.03833294  446.84519768  506.02636337
H   379.25198078  447.35121727  508.63041878
C   379.15408611  447.06091881  507.66139030
O   377.21505165  446.61803246  508.25710297
C   377.79316902  447.39890099  507.34210014
O   377.21958160  448.42419624  506.85877800
N   380.10938168  447.57323265  506.73155785
H   381.07144833  447.62072563  507.13610649
