18
{"graph_id":"817c82e6291a0ef53186d3de38208d3077afadcf7e2e159ac0776f79bf943ace","source_frame_index":23400,"representative_min_atom_index":367795,"coordinate_units":"angstrom","pbc_unwrapped":true}
H   449.08952713  143.41956377  265.74842930
H   449.55806732  145.27783394  265.87336063
H   448.27628136  144.49828863  266.83821678
H   453.46364975  146.83791399  268.92948151
C   450.51984787  144.53185797  266.91617966
C   452.85978317  144.53914165  268.67325306
C   451.74574852  144.36986446  269.22674179
C   452.89206505  144.26207542  267.34216213
C   450.56104660  144.73924637  268.38099957
H   454.95333672  145.46333551  268.71430874
C   451.76849365  144.12931204  266.57469273
C   453.84783745  145.61188221  269.01423931
H   449.61805344  144.47398186  268.81988049
C   449.28188324  144.38731670  266.27094746
H   451.57847404  143.92542839  270.08922100
H   453.96299362  144.37258244  266.93778038
H   453.78932953  145.91492414  270.09718418
H   451.73101425  143.58017445  265.59054852
