9
{"graph_id":"1bf6428de959cc7f349c4698fca8c310e1beaacd73e1a7fd1d51937b7446cb28","source_frame_index":14200,"representative_min_atom_index":7114606,"coordinate_units":"angstrom","pbc_unwrapped":true}
H   503.59139442  306.61218166  190.78457355
C   503.77349854  305.45170307  190.53925276
O   503.11245918  304.41498756  188.51321936
C   502.84848213  304.73668575  191.34298563
C   503.92870903  305.35521507  189.11386728
O   504.59990501  305.80327511  188.34933043
H   502.67047882  303.75273228  189.11657333
H   504.81367111  305.47571182  190.99127054
N   501.71489716  304.36308384  191.67120457
