9
{"graph_id":"9a3c5ade3f7e1d9a14413cf54b5f67a403a9a3a57f43229081742d24ec958ae1","source_frame_index":14200,"representative_min_atom_index":3418697,"coordinate_units":"angstrom","pbc_unwrapped":true}
O   73.63682985  34.53172445  267.06831455
H   73.82508516  36.30019128  269.27220821
C   72.85387516  35.93144715  268.88589859
C   73.16953540  34.69210863  268.29075813
O   72.69305587  33.63837600  268.72303486
C   71.72670960  35.86724997  269.63775158
N   70.76783180  35.61064899  270.26808262
H   70.22660971  35.06827652  270.86257935
H   73.64403009  35.24991870  266.41783714
