11
{"graph_id":"084ba540df5c31cdcd7e668bf6c976fe245011971521fbc004e0dd0740558098","source_frame_index":14400,"representative_min_atom_index":6192352,"coordinate_units":"angstrom","pbc_unwrapped":true}
H   281.97071552  126.29550695  304.33757305
O   281.25650883  128.25993299  302.66253948
C   282.60991573  126.58102512  303.44762802
C   282.19380379  127.13160515  302.22840309
O   282.81104565  127.10795403  301.14822388
C   283.90715122  125.97864866  303.57019901
H   284.43369865  125.66007376  302.63841152
N   284.40856934  125.48706532  304.69939709
H   285.22222042  124.82297421  304.75831032
H   284.87193584  126.34679079  304.79712486
H   281.21542931  128.84782553  301.98440552
