9
{"graph_id":"5e874c151aa1ea5cd6c8722a3bd52bdc0f88ecf560b5ed06f3fa65f3278703e4","source_frame_index":14400,"representative_min_atom_index":3199608,"coordinate_units":"angstrom","pbc_unwrapped":true}
H   74.36034679  34.36921537  265.15257359
O   74.36872125  33.47248733  265.34724236
H   72.69856334  34.51984823  267.10453033
C   73.39913249  33.68354738  267.44267941
C   74.16359782  32.91057646  266.48352146
O   74.50447083  31.59883916  266.37115479
C   74.08209443  33.84798169  268.67411137
N   74.62154627  33.42053294  269.65124607
H   74.24772978  31.55023456  265.27521610
