17
{"graph_id":"7791a874d9c6b99547a9a8ab2c897cf8cdfa8df74ac0c7b3ff11397e66e72e12","source_frame_index":22800,"representative_min_atom_index":806165,"coordinate_units":"angstrom","pbc_unwrapped":true}
H   381.69648647  111.88505888  413.19322586
H   384.69021320  113.01162243  415.23909569
H   379.48403358  115.49581289  414.46127892
H   382.09888935  116.28288031  414.90449905
C   384.00712013  112.44249344  414.64018822
C   381.58752918  115.43501616  414.97783661
C   382.77115822  114.77849483  414.86797333
H   379.43208218  113.49257231  413.33131790
C   380.45635223  114.91178274  414.39733505
C   382.87022114  113.40893507  414.48025703
C   381.57975674  112.91087866  413.67163658
C   384.27684307  111.09622717  414.11390305
H   383.83004665  111.40391827  413.24186325
H   385.42401791  110.74084044  414.17593956
H   383.40852261  110.53293943  414.63174820
C   380.43930531  113.52339983  413.81559372
H   383.64417553  115.35888910  414.74547386
