17
{"graph_id":"aceac500994ca8519e208ddc294760c3a139fa6e916cc6abcee2b2ccdecbc646","source_frame_index":22800,"representative_min_atom_index":1973105,"coordinate_units":"angstrom","pbc_unwrapped":true}
H   452.00433731  142.04994440  264.50908184
H   450.82488060  140.62441587  264.62671757
C   452.47602463  140.92476368  266.30096436
C   454.37750816  139.79970217  268.21801662
C   454.74352837  140.65865278  267.19832420
C   452.90489197  139.66765404  268.46983433
C   453.95560265  140.96057415  266.11161232
H   454.81901169  139.42761421  270.36151886
H   454.99544144  138.05421591  269.77210045
C   451.83482170  140.14416933  267.56389141
H   456.24265671  138.91571760  269.00298595
C   455.23691177  139.13081884  269.25573349
H   454.34122086  141.38553143  265.17274380
C   451.65681839  141.20930433  265.01011848
H   455.81626892  140.66698551  266.96655750
H   452.59242058  139.63782787  269.61133480
H   450.79121590  139.74225521  267.56911278
