21
{"graph_id":"53f123d6cbf395eae762f4c0a22b25720aeda351c9c060a0d5047430bea81d96","source_frame_index":18600,"representative_min_atom_index":2966426,"coordinate_units":"angstrom","pbc_unwrapped":true}
H   268.80331039  205.50520420  403.22227478
H   266.13805294  205.99551201  406.45275116
H   262.17799187  204.40940857  405.36680222
C   263.86144161  205.27615547  404.37040329
C   266.72651768  205.36718369  405.56960106
C   264.90409374  204.44531441  404.58025932
C   262.45985031  205.37674427  404.78878021
C   268.57392788  206.77087307  406.47063255
H   267.05942154  204.39331532  403.70740891
H   268.69466305  207.89706707  406.13083839
H   269.72301006  206.74865246  404.08434868
C   267.93446541  205.85052967  405.55796623
H   262.50889301  206.36205673  405.44080734
C   268.67454052  206.21635914  404.19497490
H   267.70634651  206.46972656  403.80687714
H   264.00632858  206.13257885  403.74522209
H   261.79168224  205.59203625  404.01806831
C   266.28782749  204.73582745  404.43601608
H   268.54746342  206.79538250  407.57689476
H   264.83616829  203.79860401  405.51128387
H   269.62821484  207.13551044  406.12168312
