21
{"graph_id":"d77970b90545a2e0bf75ed01f0610583baea62af46c6c63981620ec45288126c","source_frame_index":18600,"representative_min_atom_index":2452049,"coordinate_units":"angstrom","pbc_unwrapped":true}
H   181.45550489  285.22109985  115.01501799
H   180.45978546  285.45873165  113.47587109
C   180.63224554  290.43555260  110.99008322
C   180.39449453  288.51892948  114.31875229
C   180.18099070  290.06388187  112.26695776
C   180.13429642  287.15376854  116.21226072
C   180.54697514  287.22517490  114.99993801
H   180.09185791  286.14120483  116.61993265
H   180.93321323  291.37110710  110.57865620
H   179.62940931  290.48829079  110.47781706
H   181.13775253  289.89083767  110.18358469
H   179.63532209  290.97318649  112.68965006
H   178.44806910  287.66677380  117.58303642
H   181.96859360  286.66555882  114.07097578
H   179.92162704  289.15939331  115.00636339
H   179.78476286  288.46206665  111.92029715
C   179.06602621  288.02702427  116.83052778
H   178.25574875  288.26630116  116.03230238
H   179.30902243  289.00823593  117.00323820
C   180.42644262  288.80584240  112.96375990
C   181.17761612  286.04018688  114.18503523
