8
{"graph_id":"ded7d26e4810cbf576b1cbdcf2a13c66023fa150523155076ae4ca69751f13c0","source_frame_index":5400,"representative_min_atom_index":1349665,"coordinate_units":"angstrom","pbc_unwrapped":true}
H   451.21946335  88.99634480  305.09145260
H   449.14450645  88.00640106  303.74531746
H   450.39381981  90.58086276  304.90698814
H   450.00882149  88.90985847  306.94711208
C   450.24666786  89.50552940  304.94589806
O   449.42951202  89.34923410  306.19871616
C   449.51205254  89.05528188  303.78727913
O   449.39613342  89.75529075  302.73351669
