9
{"graph_id":"b2142469c39a9f706e2cc34db235b574297e0f0f98bb9320d85847af8b463a36","source_frame_index":9800,"representative_min_atom_index":4540512,"coordinate_units":"angstrom","pbc_unwrapped":true}
H   308.07394981  537.08968163  299.95038509
C   308.10887814  538.49635124  301.55797005
O   307.86998272  538.74835968  302.72812843
N   308.31823349  537.16406822  300.96089840
H   307.92708397  536.45586967  301.55322552
C   307.92670250  539.65182304  300.59559345
H   306.91766739  540.06075859  300.73914528
H   308.09245110  539.33119774  299.63378906
H   308.67402554  540.38777351  300.89757442
