8
{"graph_id":"df56b73fa43275b87c279c750c875bb973e6fd72728ec13dac5c544e73797b8e","source_frame_index":9800,"representative_min_atom_index":956048,"coordinate_units":"angstrom","pbc_unwrapped":true}
H   106.36467934  202.25670338  360.38930416
C   105.76610565  201.37820244  360.64152718
O   106.27613068  200.78713894  361.67004108
C   104.30239439  201.92711353  360.81364155
H   105.58227301  200.70843697  359.67698097
H   104.29115295  202.86297798  361.49334908
H   103.77029181  201.21271610  361.49792671
H   103.74114513  202.02436447  359.88907814
