18
{"graph_id":"590de2f0fe12531e14a582511afacb3b6a6b0368e0bca46326d3577de2d36a7e","source_frame_index":20800,"representative_min_atom_index":2217651,"coordinate_units":"angstrom","pbc_unwrapped":true}
H   445.26638985  330.60481548  145.35934925
C   448.15845490  332.33761787  146.10278606
C   445.51753998  335.18280983  146.31428719
C   445.32003403  330.95226288  146.40157223
H   444.71158981  330.58342934  147.04172611
H   445.95947266  330.27780056  146.69779539
H   447.75557518  334.82310772  146.06224298
C   445.75786591  332.37774372  146.44801617
H   448.24376106  331.62841797  145.20143270
C   447.04036713  333.04562569  146.20099068
H   445.05991936  336.22233868  146.39816284
H   448.42905998  331.58118725  147.11151123
C   446.80223465  334.47487354  145.81077099
C   444.72651482  333.24038982  147.15095758
H   449.10736084  333.12954903  146.02780342
H   443.72410774  334.96549129  147.36796618
H   444.27404404  332.84149170  148.05400372
C   444.58899498  334.61225033  147.01275826
