17
{"graph_id":"6b2aa8dbfa648b855c6843a8e4098a6095a1ab5fe6e907a7f63b37efda0451c7","source_frame_index":20800,"representative_min_atom_index":1223287,"coordinate_units":"angstrom","pbc_unwrapped":true}
H   476.21169090  382.50873089  121.39130831
H   477.14142799  381.47106171  122.44520187
H   476.43442154  383.49854946  124.58250523
C   474.05276299  379.82163429  123.38103056
C   473.91905785  381.23300076  123.63567352
C   473.70209694  381.69307709  125.86592436
C   472.97286987  381.61740303  124.72718954
H   475.66480637  382.28738308  126.54861212
H   475.83699226  380.94131947  121.71367407
H   474.89476204  379.17830944  123.56425524
C   476.04947090  381.80935383  122.27561474
C   475.50182343  382.89093971  124.37704802
H   473.74410629  379.18636799  122.54667282
C   475.08411407  381.94584846  123.40334654
C   474.81660843  382.58843422  125.76991320
H   471.86512947  381.60049915  124.58628416
H   473.97398949  381.05247021  126.69825554
