7
{"graph_id":"5b7e9fa0820ec0c2af883cda254527926857be65082744e62292ae7ff1837487","source_frame_index":13400,"representative_min_atom_index":6948539,"coordinate_units":"angstrom","pbc_unwrapped":true}
O   312.94057369  321.34850025  218.90506744
H   312.48612404  320.46768665  218.96321774
C   312.25652695  320.90816498  216.74456596
C   312.74404526  321.82915211  217.80436039
O   312.92090416  322.98271656  217.29133129
H   311.75696850  320.73955536  214.80522156
N   312.58215904  320.51181793  215.56315422
