8
{"graph_id":"6e7575b7363c2a0a36747b9ed56ff3952a6377edab6ca20f48d1520826bf4352","source_frame_index":13400,"representative_min_atom_index":2966667,"coordinate_units":"angstrom","pbc_unwrapped":true}
H   397.39606380  499.07946587  36.43226624
H   394.25575733  498.63152504  35.47798693
O   395.20809650  501.34205818  35.77860296
C   395.73848248  500.55046082  36.80339158
O   395.91274261  500.94008446  37.92234361
C   396.19121552  499.19276237  36.16243303
H   395.07596493  497.37334251  36.15184724
N   395.09930611  498.25601578  35.69940329
