8
{"graph_id":"383a53e8b0b623fbd71b73720895f88a48d7991fdd2321ecb7920a1b786c9833","source_frame_index":14800,"representative_min_atom_index":1902781,"coordinate_units":"angstrom","pbc_unwrapped":true}
H   310.48943996  394.74754333  230.50661087
O   307.44297504  391.84987545  231.42459393
H   307.47985840  391.43238068  230.54087162
C   309.30953026  393.19970608  230.73163033
C   308.69181156  392.32571125  231.71062469
O   309.41100121  392.17050076  232.80193806
H   310.42191982  394.29957867  232.10532665
N   310.11931896  394.11399364  231.18371964
