11
{"graph_id":"8210ccd46414abb85994be468dce14d347f7337841b71498b2ec7cf43e4ab55f","source_frame_index":14800,"representative_min_atom_index":2014428,"coordinate_units":"angstrom","pbc_unwrapped":true}
H   415.61026573  211.45017147  203.25257778
O   416.34726524  212.23657131  205.93068600
C   415.51604271  211.64939404  205.25021553
O   415.14725685  212.09979057  203.92034054
C   414.52374458  210.51709652  205.62231541
H   412.89777756  211.42084599  206.60536289
N   414.33515549  209.56721306  204.66997623
H   413.45281601  208.87043476  204.89342213
C   413.52405548  210.47196388  206.76200390
H   412.98780441  209.51361656  207.03606606
H   414.03851509  211.07909679  207.38172531
