7
{"graph_id":"dd4e1efca6cd307821286a108ece671e3bc0e3e8c3377675859d49b3cbbf144b","source_frame_index":14800,"representative_min_atom_index":3675901,"coordinate_units":"angstrom","pbc_unwrapped":true}
H   353.10559273  62.97501922  409.27271843
O   355.20961285  63.64702582  407.63206482
C   354.20322418  64.27566409  407.81307220
O   353.69801521  65.59321880  408.05678368
C   353.00743580  63.54452968  408.40821266
N   352.02755928  63.15330267  407.91959763
H   353.15284729  65.65698385  408.93597603
