12
{"graph_id":"0f03f0879f962526e729a1e17a8d7bf3d26152d3ecc81447c3b2c88c5a791e69","source_frame_index":12400,"representative_min_atom_index":1716116,"coordinate_units":"angstrom","pbc_unwrapped":true}
H   346.44951820  211.37642860  315.58842659
C   345.92926502  212.22858429  315.25466442
O   344.21842098  213.16847801  316.70348644
C   345.47786713  212.96849251  316.50395393
O   346.28083706  213.58330250  317.42346287
C   344.77138519  212.40680218  314.26243782
O   345.26193142  212.54065037  313.23390007
H   346.39885426  212.98863888  318.32611561
H   346.81618214  212.88163662  314.84162807
N   343.27659607  212.55164146  314.63811398
H   343.28935146  211.60266399  315.12787342
H   342.79339314  212.34748363  313.79659176
