11
{"graph_id":"b26e013b8a52a15f736661d2216e7aff5b967233e978021523ff5b651e46dfe4","source_frame_index":12400,"representative_min_atom_index":1455002,"coordinate_units":"angstrom","pbc_unwrapped":true}
H   20.14365494  102.25818157  147.63277769
H   19.34643239  101.74525976  151.53632164
C   20.11539787  102.77129412  148.50974083
O   20.50895989  104.67305183  149.75377321
C   19.45565790  101.97614431  149.48219061
O   19.17875856  100.64610243  149.11903143
C   20.90918869  103.72588634  148.82224798
O   21.91754580  104.12176847  148.25764894
N   19.25332695  102.39766836  150.77956915
H   19.98357624  103.08814049  151.16877556
H   21.27482891  104.37401533  150.31565428
