8
{"graph_id":"2846c07e571f92f7b765b268f6dc3161ed0d069f353d9cda5b4a179f58e629bf","source_frame_index":13800,"representative_min_atom_index":597506,"coordinate_units":"angstrom","pbc_unwrapped":true}
H   510.44487953  428.82738113  68.58289242
H   512.73741722  428.30910683  70.74276805
O   511.35554314  430.30676842  71.53643966
C   511.19933128  429.61788177  70.55014968
O   512.02707291  428.63850594  70.19426227
C   510.20050049  429.74162102  69.15837526
C   508.90307426  429.31170464  68.95251870
N   507.88540840  428.86028290  68.57902408
