11
{"graph_id":"6c864b7f2528a8f22e74d984a8e93cdf1e2c134d8bccc73864bc1e52ba3263b7","source_frame_index":15400,"representative_min_atom_index":8798212,"coordinate_units":"angstrom","pbc_unwrapped":true}
C   23.94268066  44.08502281  489.00704384
O   23.95320982  40.60489237  487.96973228
C   23.29070419  41.64149761  488.68522644
O   23.54870290  41.20660722  489.99652863
H   23.32828343  45.69001794  487.86063194
H   23.50734472  43.06115210  487.30921745
H   23.54688495  44.20505464  490.08622169
H   24.66620952  45.93482912  488.73205185
N   23.79634678  45.56569755  488.81731033
C   23.11306000  43.00431907  488.32817078
H   21.93187475  43.21990013  488.32945824
