8
{"graph_id":"76ca11fb2a78ea2d6387334247cfe7d15efdd1179efb9d13d37addfe21dd3134","source_frame_index":15400,"representative_min_atom_index":375254,"coordinate_units":"angstrom","pbc_unwrapped":true}
H   132.24114180  165.73683023  271.30048275
C   130.86824417  164.51917887  272.17848301
O   130.35280704  166.14103317  274.01835918
C   130.08939028  164.92742300  274.29664135
O   129.94990349  164.38869238  275.44133663
N   131.32876158  165.27746916  271.40252590
C   130.14333248  163.97341490  273.13039303
H   130.01201153  162.88661957  273.24216366
