9
{"graph_id":"c4dd979f27e8c5a93a87dafae7c2bb7bdf947c16653a47866d9638632f3e30cd","source_frame_index":15400,"representative_min_atom_index":977395,"coordinate_units":"angstrom","pbc_unwrapped":true}
H   39.22264576  261.78095341  161.84446812
H   40.32455981  263.36958408  162.24081516
O   41.79059565  259.87670422  162.74365187
C   40.54078758  259.91556644  162.57101297
O   39.72977996  258.89174938  162.02932596
C   40.98781645  262.55400181  162.61415482
C   40.17163813  261.42332554  162.45567799
H   42.65471399  261.97788715  163.73258829
N   42.10709035  262.73865700  163.22225332
