21
{"graph_id":"39c35a99f0423fed29684e00436d8883f658a746bb78a7aef46c55815979159b","source_frame_index":19000,"representative_min_atom_index":47743,"coordinate_units":"angstrom","pbc_unwrapped":true}
H   263.62822056  138.17576170  453.18584442
H   267.80943871  135.46048403  450.28719902
H   265.20242691  139.02091980  453.83276939
H   265.30425549  137.19123602  453.70631218
H   266.68031216  135.40900946  447.95422554
H   265.14072418  136.17033958  451.74942017
C   264.88566399  138.13121319  453.36146355
C   265.33782482  138.47411871  451.81231499
C   266.36264324  137.60997057  451.25498772
H   265.22796154  135.67794561  448.85315895
C   266.31982327  135.95771790  448.71377945
H   266.29490852  137.13754416  448.52657318
C   265.47551155  139.86719847  450.90384483
H   264.75043297  139.50035572  450.13670921
H   266.24820232  134.41052437  449.87635612
H   265.12868404  140.97880125  451.11327171
H   267.54658222  137.81427145  450.96220970
H   266.18363857  140.10591507  450.14958382
C   266.16010666  136.17198467  451.41201019
C   266.60709381  135.39122343  450.16455650
H   266.45832062  135.45590639  452.22549438
