13
{"graph_id":"3bd321396a0c352bfa023ba698dc7e1697fe347ce5b9def6ed59bc6519669a58","source_frame_index":19000,"representative_min_atom_index":4187232,"coordinate_units":"angstrom","pbc_unwrapped":true}
H   35.24342179  488.56735229  300.92046261
C   35.21364629  489.36791420  300.37145615
C   35.39844453  491.52364731  299.54068661
C   35.78400314  491.02582932  298.30214977
H   34.93506014  492.46320724  299.69747066
C   35.91884673  489.02812004  299.28686619
H   37.05190718  489.67871666  297.39627838
H   36.28239334  488.07611465  299.01432991
H   36.09885573  491.78881645  297.63753414
C   35.12373567  490.78145027  300.67422390
H   35.88730395  491.25666618  301.28934383
H   34.17970836  491.22204781  301.29184723
C   36.19055450  489.78395462  298.03156853
