14
{"graph_id":"4641a1970ee1a37b5bd5967f202e5b3e165b8c7a1b85950a153f2095a55905e5","source_frame_index":19000,"representative_min_atom_index":874198,"coordinate_units":"angstrom","pbc_unwrapped":true}
H   39.75773752  509.79413986  186.65525913
H   37.62520552  508.52060318  190.09370804
H   38.41049969  508.22148323  187.64448166
C   38.76303136  511.42439842  187.50606775
C   38.13503683  509.18269157  188.03577423
C   37.08601892  510.75134277  189.38156366
H   35.49948931  510.49866676  190.94358683
H   35.33590138  511.79738045  189.43036795
H   39.39989507  512.13307381  187.01651096
C   35.96525192  511.22584343  190.12386799
C   37.66058385  509.45034027  189.36189413
C   37.98883259  511.75289154  188.61588240
H   38.04483414  512.86005974  188.86063099
C   38.85020614  510.08329391  187.22362518
