21
{"graph_id":"a4a58ab5aebfa742f86456c07771d8d7d62b67ce17009e92ed161e57be7adc81","source_frame_index":19000,"representative_min_atom_index":1004263,"coordinate_units":"angstrom","pbc_unwrapped":true}
H   175.49574375  406.12607002  278.29275131
H   175.29932261  406.74185753  280.51106930
H   168.64935160  404.50110435  279.91571426
H   171.18929625  405.25789261  278.79073620
H   170.57546377  404.41393852  280.57193756
H   170.81546783  407.77430534  277.95090675
C   171.09707594  407.46569633  278.86774540
C   172.27143049  407.46893883  279.41150665
C   173.65658283  408.09507370  279.71014977
C   169.65528727  405.11083603  280.27713299
C   174.58165884  405.97872734  278.68657112
H   173.62155914  408.85515213  278.77507210
H   173.47015142  408.44340324  280.64222336
H   174.24818277  405.16886711  279.35423851
H   173.81666899  406.42275810  277.92811394
H   169.44879293  405.90949059  281.02183342
H   172.33794928  406.61101341  279.85880375
H   175.62443018  407.71555901  279.44219112
C   170.48864365  406.07953072  279.17251587
H   169.57134008  406.38489723  278.63364220
C   174.87192154  407.11193085  279.66554165
