8
{"graph_id":"6de8ecfda62633b0b1fd6a2089cb596abcde201f3ab8c1b3321676a1527436fa","source_frame_index":15200,"representative_min_atom_index":4086891,"coordinate_units":"angstrom","pbc_unwrapped":true}
H   507.52887726  20.99724561  113.78633976
H   505.99904060  22.93591052  114.49059248
O   504.90913391  23.69841188  111.60887480
C   506.25462532  23.01885337  113.52056265
C   505.10516167  22.70509750  112.66105175
O   504.49795723  21.71788514  113.11500072
H   506.79984093  23.85581285  113.30074072
N   507.08022118  21.75008506  113.31351995
