7
{"graph_id":"b53778ad3342a677e5d7a99dedfc6a4aa32da9f37dc3f17af1c12b0e9a6d8e41","source_frame_index":15200,"representative_min_atom_index":4201434,"coordinate_units":"angstrom","pbc_unwrapped":true}
H   286.32261753  540.73390961  137.72217035
O   288.09463978  541.49198532  135.84711552
C   287.61727810  542.15679169  136.70569658
O   287.90137768  543.58801842  136.36317253
C   286.89649105  541.74036980  137.73981333
C   286.01889610  542.74659157  138.60071898
N   285.14509201  542.67191887  139.43943977
