10
{"graph_id":"b79814920a8bdbf705a9e30ebb4c460b96a20a557b4bd0031aacd7936b41234c","source_frame_index":15200,"representative_min_atom_index":799216,"coordinate_units":"angstrom","pbc_unwrapped":true}
H   265.58501720  10.19546390  132.67379999
O   262.63206005  9.98376831  131.83432817
H   263.89882565  10.39864570  134.88167524
C   263.36190701  10.18347517  132.71797895
O   264.70556259  10.60080677  132.32337236
C   263.15460205  9.92298126  134.24545527
H   261.78183556  9.46341679  136.23230457
N   261.02354527  9.60674956  135.61764956
C   261.66377068  9.59304497  134.25781727
H   261.03179455  9.47723910  133.53718519
