12
{"graph_id":"b49fd6491ebe02797222be58100d1c11088427644accdb34b7a82dea1af6a330","source_frame_index":21200,"representative_min_atom_index":2132640,"coordinate_units":"angstrom","pbc_unwrapped":true}
H   550.08521080  469.66762543  235.73739529
C   548.93450737  469.25997734  234.44108963
C   547.98312187  468.28455925  233.92064571
N   550.30679703  468.77489090  235.04412174
H   546.78812027  467.86022186  232.37280846
H   549.95136261  468.10355186  235.77339649
H   547.49522209  467.35973358  234.41300392
C   547.73039818  470.15757561  232.79592991
C   547.06277847  468.85333061  233.09545517
H   546.82326317  470.84774971  232.43355751
C   548.57439995  470.36414146  233.81965160
H   548.68617058  471.38886452  234.38332081
