13
{"graph_id":"250b021bf2fe75deece99d6bdd49edfe41c39757f30b06638b2258fbc15f9533","source_frame_index":18200,"representative_min_atom_index":972110,"coordinate_units":"angstrom","pbc_unwrapped":true}
H   215.18740654  526.81250572  193.04096699
H   213.08424473  525.75054169  196.69818878
H   215.02358913  524.62325096  192.33530760
C   214.43188190  523.64358902  194.11106110
O   214.76607323  522.41544724  193.83977652
C   214.23807144  526.39384270  195.00029087
C   215.05713463  524.60494041  193.35132837
C   213.80107403  525.42977333  195.87944746
C   213.56496811  524.20969009  195.22736073
C   214.96658325  526.11560822  193.80826950
H   214.42027092  527.59766579  195.01723051
H   216.08939171  524.34802055  193.16056967
H   212.62717247  523.66690636  195.28532028
