10
{"graph_id":"69570d34c4df4c50843922c23be486c67d3a97146450db1233c603f3ad218dfb","source_frame_index":18200,"representative_min_atom_index":1756604,"coordinate_units":"angstrom","pbc_unwrapped":true}
H   264.84351158  116.62973166  139.36949968
H   261.57653332  114.38349485  137.58015633
C   262.18917370  115.18257856  137.64657974
C   263.25988770  115.30370712  138.46695423
C   264.34047222  114.44094181  139.30541277
C   264.31574821  115.79413414  139.12652731
H   262.36836910  115.52045345  136.55034304
H   265.42463303  114.12484646  138.95481825
H   261.12630367  115.70452452  137.99601793
H   264.03396130  113.62680197  140.06576538
