20
{"graph_id":"9f093bc2e7a2221dc71af49ae6e8452d44d5807885244409958ec00a257f4b8a","source_frame_index":18200,"representative_min_atom_index":1435337,"coordinate_units":"angstrom","pbc_unwrapped":true}
H   97.39632607  508.90455246  325.16829967
H   101.13794804  510.33220291  322.57721424
H   98.18674922  507.31978416  324.99749660
H   97.07611203  507.65500069  323.01476002
C   100.13790131  510.11943817  322.75738716
C   100.30440092  508.30659866  321.04809284
C   101.78564787  508.47477913  320.59085369
C   98.17107320  508.36730003  324.78511333
C   98.10938835  508.89744759  322.10843563
C   97.46436477  508.58902931  323.36869240
H   99.81436729  510.37178040  323.95596504
H   96.48899436  508.97626877  323.38421345
H   102.29616165  508.31813812  321.50828838
H   99.63782430  508.08525085  319.96774673
H   97.51483202  508.22048187  321.45297527
H   99.12815094  508.81657600  325.07519722
H   100.00252724  510.94655991  322.25887775
H   102.02962160  507.93776512  319.83571053
H   101.95213556  509.53364372  320.75245380
C   99.56004024  508.84227753  322.11818695
