20
{"graph_id":"ce86754b85a657d6b5dba2cffe92bb9859730e69d164036f1515fbc43ce0255c","source_frame_index":18200,"representative_min_atom_index":2128590,"coordinate_units":"angstrom","pbc_unwrapped":true}
H   262.15555668  212.46976852  408.11743736
H   266.05427265  212.83948421  407.47032166
C   263.65003586  213.70167732  408.24580193
C   263.90638351  211.02433205  405.80339432
C   263.07718754  212.42415905  407.87682533
C   265.89264870  209.66465473  405.67736626
H   265.45255184  208.92663002  406.28943443
H   263.84425163  213.59696388  409.42420959
H   262.59639263  212.39674091  405.81717491
H   267.23399162  211.57693863  406.79512024
H   265.81144333  209.88614559  404.59556580
C   265.18580914  210.79463959  406.30588531
H   264.75574970  214.14740086  408.12659264
C   266.26403332  211.59965992  407.25650787
H   266.40946865  211.14189625  408.36596489
H   263.18118572  214.55626488  407.65829086
C   263.27617168  212.01491356  406.58192635
H   263.25540543  210.59889793  405.03911972
H   263.42508793  211.59324646  408.31952095
H   266.74335003  209.04643536  406.08668327
