20
{"graph_id":"f55c3ea644e3ccef9bb509a2305b6ec36bd53d71c44358384a7e76fbbc9148ea","source_frame_index":18200,"representative_min_atom_index":55964,"coordinate_units":"angstrom","pbc_unwrapped":true}
H   308.12082291  455.29427528  253.57563496
H   308.02581310  457.05885887  249.52630997
H   309.17966366  456.09202385  245.60041428
H   308.26029778  454.63523865  248.09815884
H   305.41758537  455.79571724  249.18608665
H   306.57322407  457.98168182  251.15363598
C   306.07931614  456.52556419  249.87516403
C   308.28139782  455.50551414  247.40369320
C   307.04538822  456.82220459  249.14433956
C   306.95333481  456.55546188  252.46684551
O   306.40628338  457.48257637  253.31320763
C   306.38051033  456.92119598  251.25386715
H   306.86340332  457.41772652  247.15421200
H   306.61530495  454.40044403  252.87656784
H   308.88679028  454.25181389  245.86360455
H   308.00521374  455.06563187  251.81601048
C   307.51395226  456.64515495  247.65622616
C   308.50148201  455.20610809  245.91488838
C   307.47282505  455.13682365  252.80714035
H   307.66475201  455.70635796  245.23332119
