20
{"graph_id":"f82b841ba3632e6bebd0debd44f4c0446f3b24500d6eb5b04de3d35b0298ebcf","source_frame_index":18200,"representative_min_atom_index":1345287,"coordinate_units":"angstrom","pbc_unwrapped":true}
H   1.02217933  393.35236549  181.33033514
H   4.76525389  394.01473999  179.63947058
H   0.76849419  393.53256226  178.44825983
H   2.48913690  393.54748726  176.44687891
C   4.22291011  395.78824043  179.04518843
C   1.36752352  394.05071735  180.64764738
C   4.00998667  394.48158741  178.95834446
C   3.73273306  396.60472870  180.01171350
C   2.69538295  394.17474270  178.47541571
C   1.63398199  393.62130165  179.24021482
H   4.56193909  398.57661724  180.01050949
H   2.93427743  396.04833126  180.61567545
H   3.17395851  398.41103554  178.73051167
H   1.91115737  395.16122341  180.86608648
H   4.54517417  395.85521221  177.80179977
H   3.79363894  394.19877529  176.42529011
C   2.85155680  394.38092709  176.97359324
H   2.35192776  395.22633553  176.21229887
H   2.84830835  398.25694561  180.47002554
C   3.54746245  398.19734097  179.75679636
