20
{"graph_id":"465ffe6840e4079aefcd434eaadcf28ed7d8a5f865ce7fbda9c6f8ff5e7bb743","source_frame_index":20000,"representative_min_atom_index":710127,"coordinate_units":"angstrom","pbc_unwrapped":true}
H   470.06206512  31.94143474  161.04621887
H   466.09091759  35.43415070  158.33750963
H   466.76998138  34.98227000  162.04079390
C   469.63701248  32.36257434  160.00730991
C   466.67876244  35.25808454  159.28143263
C   467.53649712  34.35961604  161.78197861
H   466.03670120  33.06066692  159.02513266
H   469.44193840  34.34957266  159.92425680
H   470.47529221  34.67094600  157.93881416
H   470.34764290  32.94738233  157.52863884
C   469.63286400  33.56176317  159.42397118
H   467.66262054  35.43945849  158.96911621
H   466.35527611  35.42477787  160.34660339
C   466.35594368  33.80423486  159.63510275
H   468.62940788  34.26930010  162.23663092
C   468.31622124  32.27995634  160.36993265
H   467.84758568  31.26039207  160.44222116
C   469.94919777  33.85264277  158.08459520
H   469.12055016  34.26893950  157.65217543
C   467.20905304  33.53585899  160.61019897
