20
{"graph_id":"93f633a56f89d19df27643525bffd2d82a50c8dd92bef52b3493e1d056d1d0cf","source_frame_index":20000,"representative_min_atom_index":2049879,"coordinate_units":"angstrom","pbc_unwrapped":true}
H   442.58036613  105.44898510  470.20182610
H   443.22924614  107.17236996  470.72248459
H   435.38856506  106.87769651  469.12164688
C   442.35606194  106.52304888  470.43910027
C   439.79778290  106.42455816  470.68738937
C   438.82970810  106.28690720  471.79412842
C   437.60099411  106.46839142  471.08969688
H   438.58013153  106.99137449  469.11234856
H   436.40480042  107.11848736  467.93045998
H   439.87026215  105.25869131  473.13375473
H   438.21043968  105.61221838  473.58660698
H   439.71400261  105.47633171  470.05934715
N   436.43527031  106.84894323  468.87845993
H   441.04590416  107.51371384  471.96593285
H   436.64011955  106.34982586  471.57340050
C   437.56742477  107.07721710  469.59800720
H   439.71776962  106.85847998  473.86012077
C   440.96589088  107.10582733  470.99361420
H   442.05474854  107.12531805  469.42725182
C   439.14709091  106.09186888  473.27160835
