21
{"graph_id":"c196fbff8d99e3ed3422e624e8b438f19a074d6889077f9645f44f498c8b0f3a","source_frame_index":20000,"representative_min_atom_index":40104,"coordinate_units":"angstrom","pbc_unwrapped":true}
H   253.20959091  528.58366966  233.43753815
H   253.21834087  525.97665787  231.29823208
H   251.56209469  523.94051552  234.20133591
H   255.29794693  522.84007072  232.87584782
H   255.63471317  525.09551048  231.90855980
H   256.29987717  525.82163811  233.02552700
C   255.31346798  523.75497818  233.71183872
C   254.35264111  526.12061501  232.92136192
C   252.86161900  527.97131538  232.46626854
H   254.47096825  526.43594742  233.91332626
H   251.06611252  525.24118423  235.53118706
H   251.74634457  528.09734344  232.43870735
H   253.14455032  523.04644585  236.20612621
H   251.18210316  523.55184555  235.99531651
H   253.55157852  523.97799492  233.32273960
C   253.26459408  526.56588554  232.09865093
C   255.35764694  525.20079613  232.88466930
H   253.17549706  528.57069969  231.70278072
C   253.27498913  523.78191948  235.44049263
C   251.70755386  524.24201965  235.43035984
C   253.96444798  523.52733612  234.27541256
