22
{"graph_id":"c762148a83339698dd724371b161b3cdd5f5da965f1ce44bb8f7646aa4ade752","source_frame_index":20000,"representative_min_atom_index":2967932,"coordinate_units":"angstrom","pbc_unwrapped":true}
H   438.86213303  48.28424156  104.22476530
H   439.15843964  46.91068828  105.31178713
H   435.82301140  48.66530895  105.23284674
H   435.89463234  47.90694416  106.73366785
H   435.06979942  51.20853782  104.18659449
H   433.79921913  53.16299796  104.72307205
C   436.71851158  51.54936910  105.30178547
C   437.69416809  49.70559776  107.04437494
C   438.94014359  48.09646606  105.42346239
C   436.50527000  47.94167578  105.73991537
C   437.69469261  48.52922857  106.07997179
C   434.88812447  53.31200957  104.99262810
C   435.25195122  51.88006163  104.92631197
C   437.28680611  51.13676190  106.36600256
H   437.54496574  49.43872094  108.11780691
H   439.82210159  48.69853556  105.81315756
H   434.98229980  53.39518785  106.13025427
H   436.77592278  46.96058333  105.30234575
H   434.65085030  51.40750408  105.55354357
H   437.32838631  51.90421939  106.96362257
H   435.37378311  53.90868187  104.25819159
H   437.55092621  51.26400590  104.35950756
