20
{"graph_id":"04ee0e8ad8a3cc5e843623c81edb54917c3019562a4793aa9164a4d77b2b9cb2","source_frame_index":19400,"representative_min_atom_index":951763,"coordinate_units":"angstrom","pbc_unwrapped":true}
H   121.02183104  329.70378399  464.72892761
H   120.00907660  330.97188473  462.91961670
H   120.12265921  328.92334461  462.10999489
H   122.14106321  327.92050838  460.90292931
C   120.93406916  330.42171001  462.74480820
C   122.38150835  331.15601540  464.43114281
C   121.56822681  330.16383648  464.02478218
C   122.49835730  330.99281788  465.83304405
C   120.97247839  329.52067852  461.71565056
H   122.55709171  332.03198910  466.12930298
H   120.10025978  329.53763008  458.88252258
H   121.41680717  330.59368134  459.63034630
C   121.20300531  329.54671383  459.36479568
H   123.96512032  329.44836617  465.43889046
H   123.76133204  329.78482246  467.21448898
C   121.91463709  329.06720638  460.70170403
H   121.97171450  329.83059883  458.67452621
C   123.46993685  329.96869087  466.16163254
H   122.52312899  329.13556099  466.33338928
H   122.56804705  331.94701672  463.75627518
