13
{"graph_id":"4e5817311e6da6a05af1540d85f8864eb8b02b1d182e37045d58737c2a9741e8","source_frame_index":19400,"representative_min_atom_index":5118919,"coordinate_units":"angstrom","pbc_unwrapped":true}
H   417.85769463  61.65206432  17.78045595
H   416.36471748  60.31987071  15.26723504
C   417.87114143  58.79701376  15.90734720
C   417.18878746  60.14030576  16.02817774
C   418.35174561  58.31923485  17.03406721
H   417.38390923  58.45963359  15.08950591
H   420.19896507  56.89020753  16.87614173
H   418.83053780  56.56063557  18.03802699
H   418.14246178  56.32993579  16.58572406
H   418.37453842  59.55936909  18.94259304
C   418.99070740  57.01506138  17.18357056
C   418.22552681  59.45542455  17.84603447
C   417.63734818  60.63044071  17.37050265
