20
{"graph_id":"830f933ab35905c8de8cc542e27168875f7d35d612f8b5f65f0d51146418c54c","source_frame_index":19400,"representative_min_atom_index":258084,"coordinate_units":"angstrom","pbc_unwrapped":true}
H   192.67090559  124.68189001  107.19836950
H   198.64691496  121.54756784  108.18586349
H   194.83762980  124.21725988  106.82766438
H   198.00924063  122.27729559  104.70206738
H   200.51968098  122.31574059  107.46967793
C   198.54774475  122.45619297  107.59083033
C   196.03074789  122.28683233  107.20533133
C   197.44650126  122.39245176  106.86620474
H   193.18351746  122.14754820  105.87981939
H   199.65537786  124.07507896  107.22087622
H   200.37257671  123.23114872  108.68521929
N   197.73572683  121.65064812  105.46326637
H   195.59875727  121.26630545  107.01440573
C   194.72782612  123.14517498  106.94861412
C   199.89452362  123.15689325  107.69778490
C   193.44758987  122.86520004  106.63421154
H   191.25021696  123.60230684  106.83580637
H   191.99358225  124.37345982  105.57210445
C   192.34590530  123.81503582  106.51301146
H   197.84643650  120.72802782  105.53592443
