21
{"graph_id":"913c26b1dde73f35d16022fab9fc82455aa283d7b4afbb7c677e137364ed3128","source_frame_index":19400,"representative_min_atom_index":164512,"coordinate_units":"angstrom","pbc_unwrapped":true}
H   118.57161522  158.75813961  263.84770870
H   121.99187279  156.03034496  263.87796402
H   120.38950920  157.71641731  264.09635544
H   121.62595987  154.35131788  264.80097771
C   119.18320656  154.90584373  265.36087990
C   119.63042021  157.14205503  264.48962688
C   118.45520735  157.74116516  264.29717541
C   117.14774370  157.29616880  264.18359280
C   121.29957676  155.26107550  264.30070400
C   117.04049110  155.99315166  263.50986958
H   118.07020903  155.23461103  265.49036503
H   116.52592421  159.23187733  264.29617405
H   119.31437254  154.20666933  266.08197689
H   116.06099606  158.70712996  265.84656239
H   116.07810259  155.93600273  263.16115856
C   120.19199133  155.85469007  265.08107185
H   120.84997892  154.91836071  263.32612038
H   117.14342833  154.90065813  263.97237778
C   116.03423357  158.41449499  264.82615471
H   114.94685411  158.16948414  264.58563805
H   117.59078503  155.78967333  262.48424053
