20
{"graph_id":"1617296776265daaa5219148f594527681101de2540b74d244e5255ac48db53e","source_frame_index":21000,"representative_min_atom_index":31463,"coordinate_units":"angstrom","pbc_unwrapped":true}
H   129.64900732  549.78270531  525.36101341
H   127.50468254  548.95610809  527.98480988
H   126.02938414  552.20370293  527.77953148
H   127.49079466  550.82907677  531.50472641
H   129.04270887  550.25143623  529.20694351
C   126.56998634  551.24645233  528.30958366
C   128.52249146  550.39854050  527.05593109
C   129.34683561  549.46150780  526.48000717
C   127.76597738  551.06253624  530.50518036
C   127.47439146  550.20899773  527.83579826
H   129.01263237  548.55775833  526.10058784
H   129.86612320  550.28424263  530.84592819
H   126.10621452  551.59487724  530.34205437
H   127.25402117  551.31506920  525.49300194
H   127.87075043  552.52432823  526.57752037
C   128.27599049  551.58672333  526.06916428
C   129.04654741  550.75664520  530.21178246
H   130.50359488  549.33347702  526.68232918
H   129.19248343  552.01001167  525.74949265
C   126.76328421  551.23820305  529.65149879
