16
{"graph_id":"eda030ea0fd66a2a878455d6ba3143237fe3396f1e50aecc1349543d8e205114","source_frame_index":21000,"representative_min_atom_index":5339869,"coordinate_units":"angstrom","pbc_unwrapped":true}
H   543.33109856  457.99603462  369.91765499
H   543.29352379  457.66844749  367.47555733
C   541.91184044  455.40785789  369.04804707
C   543.75891685  455.63244820  367.70176888
C   541.94984436  456.90732002  369.35021877
C   542.83118248  454.69784737  368.19846630
H   544.93355751  457.44462013  367.48802662
H   543.43171120  453.08566093  366.98558331
H   544.56539154  455.31215668  367.05710888
H   541.32709503  457.56745338  369.81384754
C   543.16039085  457.33313560  369.09434795
C   542.77181625  453.23362350  367.94445515
C   544.04001236  457.09433556  367.98808575
H   541.62025452  452.78792381  367.87078381
H   542.96374321  452.34255791  368.47515106
H   541.46151543  454.68368530  369.94259357
